##TITLE=Benzoyl hydrazine
##JCAMP-DX=4.24
##DATA TYPE=UV/VIS SPECTRUM
##ORIGIN=INSTITUTE OF ENERGY PROBLEMS OF CHEMICAL PHYSICS, RAS
##OWNER=INEP CP RAS, NIST OSRD
Collection (C) 2007 copyright by the U.S. Secretary of Commerce
on behalf of the United States of America. All rights reserved.
##CAS REGISTRY NO=613-94-5
##MOLFORM=C7H8N2O
##MP=115
##BP=267 dec
##SOURCE REFERENCE=RAS UV No. 3344
##$NIST SQUIB=1953GRA86-93
##$NIST SOURCE=TSGMTE
##SPECTROMETER/DATA SYSTEM=n.i.g.
##XUNITS=Wavelength (nm)
##YUNITS=Logarithm epsilon
##XFACTOR=1.000000
##YFACTOR=1.000000
##FIRSTX=320.7737
##LASTX=233.3942
##FIRSTY=2.06398
##MAXX=320.774
##MINX=233.394
##MAXY=4.92726
##MINY=2.06398
##NPOINTS=113
##$REF AUTHOR=Grammaticakis, P.
##$REF TITLE=Contribution a l'etude de l'absorption dans l'ultra-violet moyen et le visible de quelques hydrazines «alpha», «beta»-disubstituees et de leurs produits d'oxydation. III. Diacidylhydrazines, diacidyldiimides et oxydiazols-1-3-4
##$REF JOURNAL=Bull. Soc. Chim. Fr.
##$REF VOLUME=20
##$REF PAGE=86-93
##$REF DATE=1953
##XYPOINTS=(XY..XY)
320.7737,2.063975
320.3610,2.100774
319.9177,2.137729
319.4484,2.174778
318.9574,2.211858
318.4492,2.248908
317.9280,2.285866
317.3981,2.322670
316.8637,2.359259
316.3291,2.395570
315.7982,2.431542
315.7982,2.431542
314.9610,2.456998
314.5133,2.489063
314.3822,2.516891
314.3822,2.516891
314.0616,2.522495
313.7096,2.532883
313.1770,2.554638
312.3171,2.594348
310.9878,2.658595
309.0557,2.753969
309.0557,2.753969
308.6085,2.790835
308.0786,2.827209
307.4765,2.863143
306.8126,2.898688
306.0974,2.933896
305.3411,2.968818
304.5539,3.003505
303.7456,3.038009
302.9260,3.072383
302.1046,3.106676
301.2908,3.140941
300.4938,3.175230
299.7224,3.209594
299.7224,3.209594
299.3227,3.242171
298.6315,3.274533
297.6860,3.302681
297.6860,3.302681
295.9058,3.375148
294.3913,3.437059
293.1114,3.489490
292.0368,3.533516
291.1401,3.570215
290.3952,3.600660
289.7767,3.625930
289.2604,3.647098
288.8223,3.665243
288.4390,3.681439
288.0877,3.696761
287.7453,3.712287
287.3894,3.729092
287.3894,3.729092
286.8968,3.744136
285.8853,3.780315
284.5874,3.828067
283.2304,3.877835
282.0338,3.920061
281.2099,3.945184
281.2099,3.945184
280.0854,3.991158
279.3650,4.015304
278.4293,4.038319
278.4293,4.038319
276.3939,4.102457
274.8527,4.150023
273.7482,4.184200
273.0288,4.208172
272.6471,4.225123
272.6471,4.225123
271.2476,4.250057
269.9195,4.276494
268.6440,4.304037
267.4029,4.332290
266.1790,4.360855
264.9553,4.389336
263.7156,4.417336
262.4444,4.444460
262.1136,4.478476
261.5910,4.478200
261.3354,4.476082
261.1267,4.470309
261.1267,4.470309
260.8934,4.472891
259.4487,4.493915
258.0943,4.517476
256.7907,4.542360
255.5000,4.567352
254.1857,4.591238
252.8129,4.612804
251.3483,4.630836
249.7604,4.644120
249.7604,4.644120
249.7331,4.648727
249.6964,4.653221
249.6548,4.657486
249.6548,4.657486
247.1451,4.682085
245.1515,4.700730
243.7612,4.714425
243.0642,4.724176
243.0642,4.724176
241.6934,4.739031
240.1151,4.769886
238.8305,4.796384
238.8305,4.796384
237.6193,4.807275
236.3895,4.831979
235.2231,4.864326
234.1992,4.898144
233.3942,4.927261
##END=
