##TITLE=Acetone
##JCAMP-DX=4.24
##DATA TYPE=INFRARED SPECTRUM
##CLASS=IUPAC A
##ORIGIN=NIST, Anayltical Chemistry Division, 301-975-3108
##OWNER=COPYRIGHT (C) 1998 by the U.S. Secretary of Commerce
##DATE=98/10/1
##$SPECTRA VERSION=1.00
##$UNCERTAINTY IN Y=2.3 % relative (B=1.3E-04,C=1.7E-09,D=2.7E-14)
##CAS NAME=2-Propanone
##CAS REGISTRY NO=67-64-1
##MOLFORM=C H3 C O C H3
##MP=-95.35 C
##BP=56.2 C
##$NIST SOURCE=QUANT-IR
##SPECTROMETER/DATA SYSTEM=IFS66V (Bruker)
##INSTRUMENT PARAMETERS=KBr Beam splitter; MCT Detector; Multipass cell
##STATE=gas
##SAMPLE DESCRIPTION=Acetone Primary Gas Standard
##PRESSURE=101.3 kPa
##TEMPERATURE=23 C
##SAMPLING PROCEDURE=1 L/min Flow
##RESOLUTION=0.9640
##DATA PROCESSING=Boxcar Apodization
##XUNITS=cm-1
##YUNITS=(micromol/mol)-1m-1 (base 10)
##XFACTOR=1.0
##YFACTOR=4.5474E-13
##DELTAX=0.4820
##FIRSTX=575.169
##LASTX=3975.077
##FIRSTY=1.66E-07
##MAXX=3974.59
##MINX=575.17
##MAXY=.0005187
##MINY=-3.98E-07
##NPOINTS=7053
##XYDATA=(X++(Y..Y))
575.17 366052 526956-401210 504970 778206 268958
577.58 526866 1380520-875482 1085028 322830 780732
580.47 420528-427964-399216 1029202 219920 483588
583.37 391782-90354 220154 1355934 1204480 273606
586.26 795096 78654-129448 945854-498060-199484
589.15-232214 249118-235756 426394 907760 565430
592.04 280512 872392 389864 584828 312812-278360
594.94 255206 498382 178770 395794-451248 472970
597.83-182852 357382 249922-59444 338388 340626
600.72 29614 225724 279206-244352 645358 387972
603.61-97352 256026-402600 182516 323464-156240
606.51 502596 109094 84290-175204-252662 254880
609.40-44384 183974-165598 354758 428394 354246
612.29-27052 685866 176412 200274 185460 456276
615.18-16666 142604 153506 239654-149968 53382
618.08-192284 43632-77246 57908-222020 214306
620.97-62072 505722-213014 337856 103592-225794
623.86 195446-315008 128800 63178-346562 49154
626.76 135320-231520-94848-48810-75638-130628
629.65-16118-246564 38264 346736-77030 52476
632.54-48420-146402-67186-175032-623086-156204
635.43-81232 71688-109400 218050-207888-185376
638.33-306220-87172-211292 421810-21034-122764
641.22-167972-331982-315380 57834-407636 126652
644.11 41252-34544-292488-97814-73362-178908
647.00-125948-74840-46670-130088-645532-185240
649.90-159210 207322-513034 107046 191266 1480
652.79-248690 153380-553956-280288-313138-271068
655.68-234082-88434 15030-266158-204952 121382
658.58-401312 65722-230774 55314-144574-290684
661.47-98868-106172-235294-267174-486862-223346
664.36-234006-182168-270004-27598-291256 24082
667.25 982192 329870-145178 233950-112084 50440
670.15-357106-141116 52298-262394-135764 226978
673.04-333564 211228-111378-395128-184920 162494
675.93-332550-158336-9972-43954-227030 63576
678.82-407552 73434-157396 53292-117908-120042
681.72-245602 44878-18576-261378-132918 87350
684.61-212524-25198 24918-62406-56576-198916
687.50-126704-75206-153532 25144 54970-21442
690.40-57520 91642-275918-35264 121184 13678
693.29-128352-17098-147172 267324-200498 114554
696.18-403230 138262-166102 73180 223614-56762
699.07-271704 25758 105540 191850 125432 233542
701.97-144430 84600-171836 64304 74624 125624
704.86 212086 74636-127268 161282 22324 105918
707.75-52406 219758 15320 173172 286990 249786
710.64 63962 413646 4282 380280 138944 225828
713.54 111962 146500 318268 288176 305974 303440
716.43 80542 356978 130530 354812 437168 634458
719.32 205966 533372 612328 467256 482712 439618
722.22 568608 703198 759912 369302 451724 700860
725.11 711742 1009688 895160 792404 751906 854734
728.00 701176 1066742 921658 1010960 969266 1156184
730.89 1134906 1010086 1202636 1260698 1265016 1447550
733.79 1461014 1355194 1564384 1767060 1585488 1719470
736.68 1698424 1809292 1897812 1925474 2086156 2046948
739.57 2214122 2253486 2406328 2548252 2402822 2878206
742.46 2825084 2933268 3099692 3235100 3032390 3435692
745.36 3437340 3652616 3883982 3937350 4176838 4335368
748.25 4535706 4579630 4844456 5144580 5054758 5441896
751.14 5537410 5764886 6153400 6243460 6548390 6731102
754.04 7014456 7202044 7500434 7846864 7901112 8289322
756.93 8310634 8666898 9021512 9143078 9355784 9675524
759.82 9820676 9992516 10262860 10518940 10828880 11315430
762.71 11340900 11720200 11651630 11946990 11935550 12017770
765.61 11927930 12509240 12536090 12565550 12540270 12705130
768.50 12766860 13120940 13035830 13366000 13332730 13596960
771.39 13201630 13384790 13314030 13160010 12972400 12908790
774.28 12980160 12719730 12660860 12657710 12545000 12982050
777.18 13474850 13668360 13925940 13625490 13672550 13405880
780.07 13264090 13089660 12756570 12623200 12540180 12533490
782.96 12786120 13192270 13685470 14072180 14050110 14591770
785.86 13973160 13834480 13843330 13582930 13182220 13188920
788.75 12763620 12852300 12465390 12494150 12266150 12054180
791.64 11654540 11638090 11536940 11108580 11033660 10535070
794.53 10182580 9856566 9860572 9462024 9156618 8748250
797.43 8064946 7935470 7641964 7264658 6656494 6470578
800.32 6095438 5581936 5232638 4778974 4659652 4616350
803.21 4109042 3784518 3902628 3386886 3311158 3066290
806.10 2997246 2849954 2420286 2598244 2173322 2429920
809.00 2168110 2352224 2113348 2034198 1732768 1580234
811.89 1377564 1473554 1225984 1235712 1009024 1164416
814.78 1079022 1099998 958658 926088 805288 949846
817.68 974222 959566 980042 812770 855742 680318
820.57 642664 885128 897454 968642 774446 822896
823.46 608314 906356 696408 767824 822418 1165682
826.35 736610 996082 754826 1050682 769616 996010
829.25 793976 662856 977800 1030804 783928 984152
832.14 927346 1313448 1103566 1199232 974318 1193528
835.03 920690 1359686 1118350 1292978 1206250 1414976
837.92 1303244 1582948 1341310 1405952 1428968 1515456
840.82 1666586 1521074 1461494 1715644 1651686 1698376
843.71 1604702 1776012 1735920 1838646 1791204 2074120
846.60 1944874 2070384 2215178 2207802 2230168 2443770
849.50 2445536 2609822 2700638 2770356 2756974 2929648
852.39 2904670 3295566 3300502 3537752 3505666 3827448
855.28 3837494 4013546 4218082 4577062 4914582 5130550
858.17 5145254 5541362 5771182 6104922 6248534 6796998
861.07 7045618 7555332 7941464 8312340 8687904 9316684
863.96 9788674 10389560 10861900 11579610 12221920 12809060
866.85 13267710 14179460 14780950 15652410 16245430 17222260
869.74 17918740 18965800 19698260 20890020 21772690 22787850
872.64 23807720 24620900 25587010 26478640 27475050 28502600
875.53 29068760 30262460 30038380 30365220 30474240 30152660
878.42 29507420 29329190 29266410 29819240 30064000 30733420
881.31 31471670 32054560 32053920 32643260 32721950 32898220
884.21 32612570 33261110 34169510 39792220 46067680 45264880
887.10 43432890 41254120 41414380 41870590 43462180 44211520
889.99 43937570 42167550 41060840 40689800 40559990 41383550
892.89 42934290 47831920 54149350 55508610 52285740 50834390
895.78 49866180 49823970 49227910 50260960 50706740 51591140
898.67 51181980 51463080 51568320 51825220 50984980 50459480
901.56 50065760 49552820 49388880 49249440 49132320 49052760
904.46 48654920 48471010 48430800 48308450 47857520 47726640
907.35 47222320 46555080 46110810 45821280 45097810 44625070
910.24 43834760 43420370 42661430 41929660 41436920 40708090
913.13 39931070 39323780 38442530 37785230 36758220 36005000
916.03 35121500 34426000 33777920 33015690 32362940 31672860
918.92 30765900 30415460 29504330 29216810 28402050 27941230
921.81 27420480 26983970 26405690 25943730 25063100 24778280
924.71 24155470 23793390 23167120 22684590 22212010 21848100
927.60 21349320 20898810 20408060 20184770 19557030 19187390
930.49 18687390 18259130 17868960 17448900 16882920 16689910
933.38 16105370 15955870 15470940 15281520 14777600 14548640
936.28 13986990 13793320 13274770 13118680 12844500 12502470
939.17 12076570 11958170 11527640 11219170 11141150 10959870
942.06 10842290 10492430 10359580 10231460 9941092 9914978
944.95 9622236 9637502 9413536 9405988 9242440 9164726
947.85 8892120 9002854 8790348 8855272 8798418 8719346
950.74 8645078 8573658 8544246 8442360 8368512 8492152
953.63 8284306 8371444 8203450 8327780 8110420 8209134
956.53 8210268 8259696 8205596 8384342 8220716 8213612
959.42 8095266 8306476 8041482 8177132 7884080 8091050
962.31 7996708 7913308 7838344 7934654 7645498 7707100
965.20 7468758 7520040 7347946 7486992 7519872 7812298
968.10 7859672 8577472 7627920 7428990 7325004 7470768
970.99 7265744 7348260 7169428 7255568 7058884 7183840
973.88 7031044 7169752 6919822 7035270 6862134 6953306
976.77 6796060 6950230 6886406 7008818 6795014 6928774
979.67 6762130 6876910 6719846 6893128 6637480 6660344
982.56 6606608 6565644 6488206 6449330 6349138 6353368
985.45 6163684 6270220 6173976 6301214 6173126 6294248
988.35 6051764 6226568 6011912 5902672 5662502 5879632
991.24 5482034 5601914 5331954 5396594 5080960 5144398
994.13 4944128 5094406 4835476 4977988 4737162 4876636
997.02 4661176 4695068 4580652 4856936 4717552 4805114
999.92 4804848 4835262 4591240 4441642 4330324 4347366
1002.81 4004718 4138030 4006900 4044006 3750946 4058650
1005.70 3830522 3873836 3850786 4040022 3859896 3984002
1008.59 3814344 3880390 3750618 4021612 3813520 4055404
1011.49 4056724 4159912 3721616 3933688 3800644 3893452
1014.38 3888590 3874602 3747354 3777748 3677096 3808546
1017.27 3624178 3674836 3485636 3785108 3919796 4047780
1020.17 3486948 3593450 3416720 3606058 3358842 3624092
1023.06 3359604 3659024 3501130 3584044 3345678 3729104
1025.95 3355792 3713980 3403330 3653842 3510052 3673908
1028.84 3446168 3731238 3590800 3738986 3745710 3891550
1031.74 3652808 3858254 3656662 3945782 3845198 4016982
1034.63 3837716 4142170 3903024 4326232 4184468 4335198
1037.52 4256610 4455642 4289060 4479842 4223252 4472876
1040.41 4453964 4798350 4524706 4677476 4541790 4781304
1043.31 4757036 4870036 4703836 4957964 4814238 5025020
1046.20 4917466 5082228 4871538 5280008 4952030 5294014
1049.09 5063476 5341210 5315058 5372232 5189000 5466984
1051.99 5305430 5484024 5194194 5664140 5363038 5703478
1054.88 5386634 5757726 5486556 5831114 5632678 5994096
1057.77 5822360 6170498 5925810 6353496 6150980 6540206
1060.66 6320130 6839576 6583636 6967836 6691560 7142186
1063.56 7037942 7429492 7227502 7689130 7508490 8160882
1066.45 7833340 8545838 8178806 8760980 8601754 9155260
1069.34 8912246 9563202 9337968 9978718 9702866 10368190
1072.23 10131640 10714110 10345870 11097780 10922360 11533870
1075.13 11079810 11970810 11520870 12213120 12057560 12688240
1078.02 12339780 13289530 12798700 13191680 12704660 13468210
1080.91 13172050 14139480 13092920 14188180 13556130 14625220
1083.81 14099580 15408820 14766710 16283220 15698020 17590290
1086.70 17492520 20272880 19275040 22669120 22585940 28202970
1089.59 27946670 34555830 36152340 67219100 66849140 34325170
1092.48 31013790 29250000 30223490 53021660 45526360 20090460
1095.38 23922060 19478750 22334490 19655010 21316020 19298890
1098.27 20778160 19210950 20609800 19574010 20781290 20020510
1101.16 21175340 20663130 21683140 21228820 22121200 21700900
1104.05 22594910 22294370 23002750 22727300 23406530 22922410
1106.95 23621190 23057990 23615420 23253850 23727250 23406730
1109.84 23695720 23258950 23644630 23200380 23325670 22874170
1112.73 23040250 22539740 22486310 22067450 22146520 21386240
1115.63 21342690 20690950 20655870 19929050 19927860 19231520
1118.52 19102630 18326190 18196220 17484550 17368340 16830950
1121.41 16645570 16066390 15732860 15210040 14926690 14363170
1124.30 14091690 13557980 13477220 12848760 12714080 12119390
1127.20 12072040 11520260 11425050 10904580 10755050 10249030
1130.09 10167630 9812308 9679042 9360424 9184888 8744190
1132.98 8731158 8400770 8343524 7923432 7907642 7672618
1135.87 7753710 7371866 7321880 7143820 7051250 6834352
1138.77 6766772 6475354 6663088 6316036 6357192 6128572
1141.66 6181050 6011208 6030424 5951648 5955056 5825824
1144.55 5793418 5586284 5553862 5411234 5497050 5316906
1147.45 5286786 5283778 5221424 5160980 5285752 5121506
1150.34 5407872 5169966 5182706 5220252 5351486 5259474
1153.23 5329988 5210624 5537230 5387388 5460976 5596042
1156.12 5605840 5554496 5692582 5799890 6068266 6048848
1159.02 6308982 6271678 6475964 6639254 6737598 6986534
1161.91 7146202 7272720 7636088 7798052 7933228 8364930
1164.80 8599110 8948170 9265026 9528864 10028830 10278930
1167.69 10754300 11212860 11620970 12119680 12648330 13136480
1170.59 13707460 14232590 15060780 15566040 16373360 16991780
1173.48 17897180 18745420 19592040 20484670 21487830 22475280
1176.37 23610430 24862810 26261650 27475940 29051860 30588500
1179.26 32469780 34240410 36328240 38522040 40986040 43568500
1182.16 46511530 49511280 53031950 56714500 60786040 65259820
1185.05 70208150 75454100 81229040 87419280 94288150 101832400
1187.94 109636500 118193100 127689000 137878400 148627900 159948300
1190.84 171590600 182162200 193805500 208021700 221294000 235120300
1193.73 248844800 261954900 278190000 294406000 312017000 329362600
1196.62 346847800 364955600 383278300 400015900 417784200 434706700
1199.51 451637400 467193200 481856700 495920300 508352700 521017700
1202.41 532146600 543383800 552114000 560335000 567882000 572807400
1205.30 575841200 572177000 567787400 563502900 560592100 555616900
1208.19 550545400 543478000 537939200 531739100 529182500 527715000
1211.08 528727300 530591100 534361500 542681600 561350000 584951200
1213.98 620172000 659427600 704928800 749982200 806823000 842861400
1216.87 862802800 856121300 795135600 690755500 642216900 661301200
1219.76 449321500 392462600 406180300 419281300 440875800 462146900
1222.66 484516600 505069600 524502000 543337500 560985300 576946000
1225.55 592182300 605106000 617631000 627364200 633170900 639657000
1228.44 640966100 639538500 633478500 625336800 612464400 598822500
1231.33 581985100 565671700 546647400 524145000 500381500 477256300
1234.23 451125700 424808000 399249200 373725000 346192800 321274200
1237.12 295879700 272223800 248631500 227338800 206340900 187699600
1240.01 169564400 153299400 137755000 124019500 111225400 100107100
1242.90 89546580 81010350 72138080 65456670 58447370 53152740
1245.80 47465510 43443960 39048380 36015460 32402260 30271660
1248.69 27412970 25704780 23462240 22128010 20333580 19407620
1251.58 17847750 17336310 15950900 15451960 14268590 14069300
1254.48 13028690 12784960 11911230 11750310 11041440 10890190
1257.37 10218780 10141930 9594788 9533604 8861142 9115918
1260.26 8450706 8461242 8136768 8168564 7641260 7914522
1263.15 7478574 7599420 7131100 7407738 6882426 7195684
1266.05 6712370 7078084 6646502 6787048 6502858 6829070
1268.94 6423662 6711656 6264168 6608726 6285432 6688912
1271.83 6194880 6507088 6161774 6486492 6213730 6574990
1274.72 6204128 6675582 6289890 6655104 6341840 6707326
1277.62 6484072 6841748 6560062 6934760 6619430 7123348
1280.51 6691740 7210774 6889488 7302968 7031882 7469986
1283.40 7222684 7625024 7451980 7796512 7628886 8161184
1286.30 7993826 8490250 8162504 8840928 8729646 9591332
1289.19 9701278 10917240 9939542 9546554 9206568 9764688
1292.08 9442052 9975276 9818232 10308160 9992650 10620260
1294.97 10318660 10964980 10797180 11384040 11178650 11822330
1297.87 11712050 12336600 12231170 12950160 12769650 13536980
1300.76 13462160 14135810 14068530 14887330 14848120 15554520
1303.65 15393850 16120150 16126410 17024710 17052890 17912230
1306.54 17809920 18517720 18567490 19610090 19561950 20553300
1309.44 20598400 21607510 21595740 22860160 23093560 24237440
1312.33 24086520 25209860 25557070 26917380 27269670 28598600
1315.22 29099740 30477830 30587310 32129190 31959920 33348520
1318.12 33905840 35620260 35777270 37682400 38180940 40083810
1321.01 40677480 42893870 43591500 45923580 46773080 49140320
1323.90 50094490 52838210 53830700 56585340 57847300 60674290
1326.79 62303440 65485810 67387510 70963900 73134020 77005420
1329.69 79736930 84070180 86860190 91688620 94738920 100072500
1332.58 103767100 109793400 114046400 120607000 125701800 133067800
1335.47 138695400 146753600 153165500 161915900 168970900 178814600
1338.36 186625700 197159700 205869500 217505400 226953800 238646900
1341.26 248816500 261947300 272985200 286631300 297968300 312316100
1344.15 324019300 338348000 350342500 365378400 377118200 391320900
1347.04 402848500 417830900 428829400 444523900 453752300 466860100
1349.94 477102600 490463100 498922400 509159700 514507700 520482000
1352.83 522218400 527767100 528313800 535102700 533722300 533809100
1355.72 525482800 524152100 516716400 514344400 507849400 508130800
1358.61 506614000 520898800 537837500 586653100 619843900 608446500
1361.51 576887900 579617900 579214300 598140000 594988400 638811200
1364.40 689906700 983986800 846685100 613170900 629272400 608754500
1367.29 632376300 631590100 656531500 656837200 661160300 648785800
1370.18 648304200 638338100 641741200 635586500 637088800 628964700
1373.08 627794900 620251600 618065100 611135700 607010800 599002800
1375.97 593283100 583885800 576939500 565600800 557510800 544484500
1378.86 534994100 523950300 514373400 497822000 481215300 460797500
1381.76 444313400 423289900 407353300 387487500 372706100 354360300
1384.65 339631400 321597200 307926400 291246700 278369000 264981900
1387.54 251087200 237424100 227021700 215109900 205813200 195521500
1390.43 188073000 179094500 172656600 165070400 159940000 153746800
1393.33 149334800 146101600 142446100 136040400 134765800 130133700
1396.22 128240000 125129600 124476200 121569100 120795200 120497500
1399.11 119098500 116548200 116876200 115119300 115691400 114331200
1402.00 115041000 114064600 114912900 114367100 115161800 115224400
1404.90 115277800 114226200 115538900 115591600 117153600 118203300
1407.79 120609000 122475200 126194200 127895900 129337500 125631000
1410.68 124461800 124655700 127260900 129013200 132584400 134950900
1413.58 138387800 139906600 142248400 142782300 144354700 144246400
1416.47 146121300 147925700 148727500 149847300 152631800 157862000
1419.36 156689300 155318400 158415500 159052600 161766800 162312300
1422.25 164832700 164570700 166520300 166422300 167027600 166430300
1425.15 167315600 166795400 167584600 166839200 167431500 166168400
1428.04 166082900 164372600 164634400 163892200 162773400 161531500
1430.93 163345300 165279700 169736200 173127600 177989200 181705600
1433.82 187551700 185006100 184223000 184723900 178856300 178863200
1436.72 174069500 171588500 173639300 173685100 175955900 178120400
1439.61 181488100 180832100 180612400 176936000 175810300 173088700
1442.50 172692400 169966800 169447600 167737800 168451800 167518300
1445.40 170338600 168971100 168422400 168121200 175384200 173140700
1448.29 171357100 168889100 165327800 159229600 156611100 151951400
1451.18 150050500 144672000 143136600 138819000 143665200 145309300
1454.07 191291800 208712600 155748800 142427200 138160000 139226500
1456.97 126706300 127469400 125084300 123468400 121658200 120218500
1459.86 118317600 117838400 116259200 115841500 113476000 111932700
1462.75 109308500 108236100 105732900 106995300 104672800 100864800
1465.64 99817410 97972530 96464460 94963100 93671340 92116860
1468.54 90857940 89747230 89099890 88058470 87331740 86881010
1471.43 90130080 89193690 87094680 91338670 87021580 82054920
1474.32 79837880 77848850 76875120 77227300 74598370 73290690
1477.21 72479480 71090990 69827130 68055100 66104840 63654460
1480.11 61480040 60125270 58684160 57057620 55995140 55001060
1483.00 54338870 54595150 53867140 52387640 51069750 49138500
1485.89 48656830 47626280 48888600 46601200 45787700 45629270
1488.79 45320650 45830720 44249120 44663730 43581600 41859620
1491.68 42229740 41171980 41423310 40469210 40904040 39695800
1494.57 40563090 38876560 43574120 42956320 38315400 39347700
1497.46 38129460 39353940 40508510 38064020 37832370 37717270
1500.36 37586100 37393060 37604130 37123250 37020670 36874300
1503.25 36674810 36689080 36301190 37764290 43316500 36046130
1506.14 39093090 43532800 37683080 38637400 43398340 40099380
1509.03 37896450 37252080 35853260 36001820 35338980 36251880
1511.93 37289170 35286880 35517040 35487500 35613310 36100650
1514.82 36055340 35003740 36270150 36162550 37223140 36791540
1517.71 35184280 35138870 35380390 35174770 38101820 35705380
1520.61 42023990 41127310 35066090 39149210 36553420 36348970
1523.50 35702920 36761620 36465740 39925170 37458320 36954840
1526.39 36929440 37685480 36007310 36671230 36359130 35549400
1529.28 35409350 35422540 35327900 35496600 35791780 35362080
1532.18 35435200 36661480 36841680 37622920 34367120 35469850
1535.07 34671780 35491740 34529760 35885440 34291100 36000590
1537.96 34307190 43162570 38001800 35930460 40677260 34368130
1540.85 34352550 37289250 38754840 33136780 35118280 33805660
1543.75 33936560 33790380 36596520 33376310 33291200 32759320
1546.64 33042270 32672900 33048950 33000820 33824430 34039780
1549.53 33776490 32644730 31693280 31731020 31466810 31686250
1552.43 31453890 31674310 31941070 36435560 31215100 31203450
1555.32 30101020 31089930 29480760 33277100 32487430 34530050
1558.21 37698370 29494390 32971850 36776040 33047140 27885240
1561.10 29970260 28114410 29614230 28208670 29275080 27676420
1564.00 28907320 28447630 27916100 26880720 27294200 26358970
1566.89 26914490 25971770 26491190 26294620 26849810 28700180
1569.78 26128160 24667910 25223180 24020320 24582380 23399050
1572.67 23967850 22704410 23516510 22084960 23374330 21609200
1575.57 30797960 25575160 20919240 21774510 20849980 20825210
1578.46 20441500 20345700 20060840 19871450 19730910 19471420
1581.35 19401360 19039960 18996920 18587440 18544830 18260500
1584.25 18230700 17844840 17811200 17622560 17561410 17235610
1587.14 17299780 16815500 16955580 16535040 16518420 16167910
1590.03 16160270 15762540 15804800 15198070 15280780 14826950
1592.92 14954970 14443480 14715390 14156870 14084860 13622200
1595.82 13810070 13270340 13271030 12795940 12869190 12483540
1598.71 12513090 12120330 12212480 11720760 11899990 11459040
1601.60 11441300 11097160 11200070 10763260 10812240 10423270
1604.49 10519250 10101020 10269230 9812688 10108220 9766602
1607.39 9721736 9393328 9549602 9434296 9493898 8803912
1610.28 9202732 8492368 8870492 8365366 8770236 8019284
1613.17 8718882 7860606 8668744 7524462 8976670 7366760
1616.07 15308010 12431750 7112868 8401830 7325522 7857456
1618.96 7471092 7663598 7573462 7671250 7620736 7340218
1621.85 7684760 7262498 9207816 9766776 6908630 7764928
1624.74 6977380 7400300 6787638 7339094 6691388 8392120
1627.64 7713532 6897152 7043210 7053512 6913460 7049482
1630.53 6887630 7080182 6870488 7166322 6929214 7286780
1633.42 6961612 7682294 8708780 11798770 12861470 6957852
1636.31 7917824 7910208 8730910 7100476 7965416 7356406
1639.21 8034374 7709786 8181204 7698534 8344106 7971098
1642.10 8631034 8139620 8789030 8377336 9044774 8716870
1644.99 10044580 15073170 10690930 9276842 11834170 9876880
1647.89 11797540 9587368 10734330 9662790 11172730 9694324
1650.78 12079190 9713874 19432650 16103670 20417000 15787740
1653.67 11867510 15850050 11096140 12821890 11620610 12745500
1656.56 11955190 12941150 12263930 13038920 12521110 13271700
1659.46 12819780 13413080 13022260 13833650 13305070 14421400
1662.35 16441760 14209470 13686340 14148320 13917720 14506220
1665.24 14344720 15156980 15359330 16878090 16959840 19146920
1668.13 18328200 21467820 22009880 18689890 19471380 19445680
1671.03 21338570 19952000 20291100 20772330 21255210 22004000
1673.92 22289210 24975940 28287220 24799510 25016790 25527200
1676.81 26216320 26803880 27438430 27980000 28727690 29689640
1679.71 30447020 31158340 31159360 32037140 32560270 33648630
1682.60 35922740 36953200 36202180 42130560 46675400 36620600
1685.49 39731900 38791030 41342410 41196060 43635240 44383170
1688.38 46122710 46558650 49440580 50374490 52446140 53712080
1691.28 56615000 57842730 60875350 62031760 65535550 66776240
1694.17 71224460 72717400 83678620 88766550 84333660 90914490
1697.06 96394080 102720900 109717500 116559100 125066000 136069800
1699.95 139539800 145496400 148068700 156195700 164063000 172970200
1702.85 182371000 192398100 204698000 215491200 226124800 239182400
1705.74 254016900 267376200 280822400 296224300 311794700 328273500
1708.63 345334600 362733500 380676300 398905800 416830100 435897700
1711.53 454154100 473533900 492482300 511149500 530215600 547793300
1714.42 566889500 585783100 599570900 618094800 633424100 658645000
1717.31 667981400 679901900 695879600 706963900 720145200 732259900
1720.20 744338400 756201900 767777800 778067600 789721300 799399500
1723.10 809750000 818402900 826868600 834801800 843072200 850395800
1725.99 858051600 863642000 870925500 878399700 883020000 880188900
1728.88 874229600 867841000 861656400 856014100 855513900 856939300
1731.77 870986600 888034400 918385900 948158300 988396000 1032199000
1734.67 1056094000 1083595000 1104271000 1119135000 1125931000 1130907000
1737.56 1133802000 1138637000 1139952000 1140785000 1134150000 1119477000
1740.45 1106287000 1092587000 1083792000 1077778000 1069152000 1058829000
1743.34 1049641000 1041588000 1034054000 1024458000 1013145000 999761900
1746.24 985960700 972119700 957887300 946145000 934793000 922571700
1749.13 910864800 901286200 893990600 891988500 884775800 870074400
1752.02 857208000 842328100 827185100 809553400 789529900 768210800
1754.92 749439700 732029200 715502100 701377300 683593700 670268900
1757.81 657873900 646756400 635442500 624101800 612841200 602207900
1760.70 592797200 586334700 566393500 545689700 529947400 512843600
1763.59 496469400 479276200 464356100 449494000 435428300 421280400
1766.49 408358900 394488100 383407900 370362700 357423100 349597700
1769.38 341031300 334190400 324582900 314151900 302520300 295871000
1772.27 293505400 294123600 285993300 270120300 257088800 242591900
1775.16 229872300 217989100 210451000 205377000 202934600 200851500
1778.06 196482400 190475700 185220700 180405800 177135500 173310400
1780.95 169290800 167020500 164466400 162559600 159812000 158109600
1783.84 155508000 154474700 151710700 149598600 148315200 146833900
1786.74 144569800 141300300 136545700 131982000 126510100 122192900
1789.63 118641400 116578700 115208200 112800400 110749600 112143100
1792.52 108453900 103715400 101924600 98711040 96493560 93493860
1795.41 91155790 87838540 85205490 82476630 79998580 77591220
1798.31 75414740 73729380 72517010 69717070 68229220 66925770
1801.20 64952290 62935860 61854350 59125740 57941740 55925570
1804.09 54709860 52870040 52009250 50327130 49428760 47817210
1806.98 47037090 45282800 44161050 42699380 41686300 40146210
1809.88 39705950 38432400 36673280 35631580 34760690 33469070
1812.77 32475500 31339190 30498080 29375600 28634070 27597920
1815.66 27017280 26020040 25498830 24852590 24035710 23310620
1818.56 22697240 22097050 21562680 20891290 20493640 19836320
1821.45 19438560 18892280 18661870 17932580 17855230 17153980
1824.34 17445980 18134690 16284940 15881800 15557960 15186370
1827.23 14975260 14591540 14528640 14613770 14044360 15430740
1830.13 13602710 12911930 12791520 12376370 12277530 11980600
1833.02 11798040 11566230 11533730 11389790 11416330 11208830
1835.91 10996430 10736560 10819790 10278620 10339820 9941814
1838.80 10016810 9713382 10134330 9832268 9685088 9141318
1841.70 9539772 8978130 9312950 8537224 12046880 9723448
1844.59 7679518 8041214 7403418 7416164 7018666 7353036
1847.48 7159312 6688578 6572534 6374134 6268460 6108190
1850.38 5949496 5837292 5762856 5629132 5526302 5387880
1853.27 5344060 5218120 5246384 5042366 5051346 4875648
1856.16 4929750 4690060 4797384 4567718 4600246 4334080
1859.05 4357156 4231476 4248786 4096992 4148324 3973246
1861.95 3970580 3863256 3849814 3750472 3803106 3728610
1864.84 3754536 3642708 3922178 3612000 3537202 4010740
1867.73 3987274 3162378 4989588 4181842 3180060 3491980
1870.62 3306516 3260954 3189688 3208278 3205578 3152516
1873.52 3126706 3139744 3033144 3027262 3019296 2970934
1876.41 2922144 2890054 2859258 2829698 2833432 2736246
1879.30 2796454 2649990 2691148 2658140 2585310 2609402
1882.20 2656222 2505382 2526880 2456540 2571394 2438378
1885.09 2518836 2446204 2622548 2578930 2896334 2484614
1887.98 2450648 2168046 3013616 2514558 1979488 2097692
1890.87 2008998 2034470 1980854 1961460 1923830 2024662
1893.77 1960374 1944334 2247950 1913498 1954636 1858226
1896.66 1876240 1893284 1816436 1845148 1787270 1748578
1899.55 1764886 1770572 1702468 1685184 1654206 1586070
1902.44 1569404 1588572 1546654 1515944 1442406 1441902
1905.34 1425814 1342584 1382492 1240840 1413566 1331646
1908.23 1230858 1131754 1340890 1411208 1058348 1138642
1911.12 1048182 1082984 1039442 972008 960502 971990
1914.02 894616 937666 794198 948712 791132 1048988
1916.91 675750 2231862 1577822 612350 974226 669234
1919.80 844700 736404 912056 749228 1067084 904142
1922.69 1325652 837382 876826 765516 840934 731862
1925.59 863700 788498 839036 776966 788124 775574
1928.48 806860 745664 807528 807490 800316 771902
1931.37 799228 764128 823146 802752 839180 854382
1934.26 786962 850750 835988 788544 857000 862460
1937.16 903416 824830 899204 867134 831062 845288
1940.05 952242 838732 1004118 852648 1666508 1169620
1942.94 881726 981802 907678 996530 1046598 1023684
1945.84 1086794 1030698 1054018 1077772 1048608 1049010
1948.73 1141720 1148674 1111020 1179060 1175602 1155442
1951.62 1310320 1223670 1296416 1324796 1322406 1309956
1954.51 1411918 1387650 1358016 1395284 1457988 1470384
1957.41 1524150 1577974 1537778 1554458 1632844 1597968
1960.30 1710098 1681084 1752630 1746310 1746176 1791550
1963.19 1825870 1838086 1858382 1859110 1864686 2074520
1966.08 2016284 2101230 2365698 2007862 2186530 2172210
1968.98 2210736 2093782 2228520 2133622 2307812 2233542
1971.87 2205006 2288860 2352928 2338270 2441432 2386198
1974.76 2414122 2357410 2404596 2405978 2486922 2410152
1977.66 2408050 2472776 2549818 2532454 2499382 2509824
1980.55 2558224 2426416 2473692 2418478 2491168 2464318
1983.44 2500116 2364684 2503714 2406786 2525520 2522272
1986.33 2499814 2428890 2535064 2475460 2462086 2182980
1989.23 2307142 2143640 2249302 2161400 2583738 2618164
1992.12 2354510 2307020 2237668 2270528 2291274 2322298
1995.01 2274034 1976952 1976586 2024110 1915286 1960048
1997.90 1899946 1938334 1933844 1826378 1808008 1766904
2000.80 1800522 1715644 1682162 1664954 1697770 1586804
2003.69 1573210 1529754 1471520 1433720 1419064 1314218
2006.58 1248272 1207936 1201272 1073866 1101754 976760
2009.48 938014 830844 933824 817466 750236 717444
2012.37 676446 653218 602656 572642 606458 478056
2015.26 493794 412842 671356 505788 406310 488768
2018.15 421166 387230 404676 382704 404224 337934
2021.05 397334 346596 406676 328632 363664 271382
2023.94 327466 349682 351226 351540 340346 388534
2026.83 306356 300292 318242 314304 376006 291104
2029.72 353556 336326 318188 347880 267108 339118
2032.62 360766 311202 268398 353722 362198 361610
2035.51 393302 348112 363558 308918 376480 327394
2038.40 396746 372598 393346 361132 367932 391550
2041.29 428730 380552 434934 391688 352040 424892
2044.19 458312 464548 504100 426758 424264 413836
2047.08 455244 484122 469358 447448 502616 512618
2049.97 466886 440086 560760 479980 597548 560798
2052.87 540414 586850 554202 566452 693904 549618
2055.76 701882 612680 689532 569698 679064 718706
2058.65 763274 688650 752570 757430 760002 799760
2061.54 811854 803260 865386 834160 931462 943896
2064.44 1017836 948040 1027588 963262 1074320 996464
2067.33 1090060 1077746 1140910 1168902 1229804 1234632
2070.22 1308166 1289050 1408662 1379172 1454452 1424112
2073.11 1451164 1566142 1553082 1598146 1698982 1772604
2076.01 1812884 1835628 1900520 1961082 2026398 2167548
2078.90 2185996 2287498 2283730 2371870 2519774 2540752
2081.79 2673942 2750326 2877338 2950392 3098292 3132900
2084.69 3309426 3342842 3511758 3597768 3695698 3806748
2087.58 3963314 4052638 4210868 4289982 4453016 4520428
2090.47 4616732 4779172 4867052 5013892 5065932 5273318
2093.36 5412948 5352942 5501594 5567052 5713720 5829708
2096.26 5880792 5858488 6023748 6214004 6387272 6564402
2099.15 6723412 6741036 6926230 6838934 6804086 6727584
2102.04 6790634 6807068 6991026 7161362 7414576 7604810
2104.93 7855012 8112878 8302192 8452618 8595712 8633986
2107.83 8692440 8698908 8742330 8821838 8882030 9023188
2110.72 9239564 9475294 9676504 9869490 10012340 10162830
2113.61 10360710 10459580 10623210 10704810 10798430 10980040
2116.51 11161760 11234780 11434470 11517570 11637630 11692500
2119.40 11814260 11896810 12068890 12144180 12190910 12284980
2122.29 12332640 12456200 12531700 12504590 12611910 12611210
2125.18 12627650 12509750 12614380 12534570 12547740 12496260
2128.08 12562680 12542790 12549680 12514460 12483360 12486640
2130.97 12527100 12501120 12512090 12445020 12442300 12486140
2133.86 12524280 12629930 12616790 12648560 12567460 12152990
2136.75 12060770 11931320 11898860 11744620 11725060 11546790
2139.65 11502710 11486520 11507710 11498560 11650420 11635530
2142.54 11680300 12066370 12427230 12529490 12580800 12342570
2145.43 11543420 10969180 10719810 10501820 10470300 10340330
2148.33 10258640 10128070 10030170 9884186 9697148 9555466
2151.22 9409428 9271988 9225932 8992106 8799670 8539100
2154.11 8447858 8196022 8084898 7901232 7594520 7357248
2157.00 7200384 6863606 6708586 6469794 6272290 6010724
2159.90 5733098 5529846 5252492 5063386 4785922 4509120
2162.79 4403294 4206688 4027336 3750488 3610282 3512844
2165.68 3326710 3155544 3052282 2955176 2767576 2698060
2168.57 2638414 2521820 2444344 2328046 2240056 2127406
2171.47 2056824 1987266 1986686 1931604 1894974 1891984
2174.36 1856802 1811328 1735144 1778880 1674190 1637466
2177.25 1646100 1584874 1670400 1585752 1509902 1564196
2180.15 1511348 1387362 1429172 1484186 1402892 1248970
2183.04 1254038 1352300 1442602 1444812 1416910 1398836
2185.93 1364986 1294122 1282522 1217122 1168820 1120504
2188.82 1211102 1274040 1345452 1306090 1301154 1309474
2191.72 1371252 1258824 1279010 1234614 1229496 1285308
2194.61 1251852 1281706 1230406 1221656 1260368 1293922
2197.50 1270622 1345534 1284770 1321536 1358330 1274576
2200.39 1307036 1328544 1339924 1393216 1373300 1333994
2203.29 1424508 1395364 1396240 1369028 1476360 1393166
2206.18 1414008 1479762 1600908 1520392 1618406 1639478
2209.07 1679236 1782336 1850610 1816690 1906452 1880782
2211.97 1982024 1860696 1968650 2005186 2009056 1991860
2214.86 1955722 1951866 1952596 2021224 2043540 2023892
2217.75 2115652 2157082 2200922 2237058 2210352 2296566
2220.64 2326576 2333408 2442630 2510154 2551716 2648136
2223.54 2770524 2800162 2928478 2922376 3133188 3163394
2226.43 3225434 3226492 3231022 3285410 3385422 3507902
2229.32 3610446 3616272 3738662 3764996 3729958 3876922
2232.21 3826910 3934862 3925834 3946528 3959956 4006356
2235.11 4016408 4052632 4122784 4222092 4175172 4263008
2238.00 4306128 4411428 4343234 4432722 4534106 4559504
2240.89 4611318 4672764 4713560 4824216 4930376 5009368
2243.79 5295220 5481062 5592928 5405344 5271812 5231290
2246.68 5167454 4883568 4693228 4618142 4578840 4573270
2249.57 4634884 4627562 4671206 4718420 4761200 4868130
2252.46 4942668 4846890 4926068 4905374 5041226 5004960
2255.36 5049420 5027736 4971938 5007554 4927878 4971110
2258.25 4938776 4885714 4885332 4807416 4849884 4822598
2261.14 4756564 4645220 4603196 4618844 4565292 4411808
2264.03 4331526 4248734 4151568 4027194 4080046 4063938
2266.93 3935230 3910302 3836292 3774826 3673080 3666992
2269.82 3598584 3532672 3490954 3493708 3407116 3366932
2272.71 3391688 3253224 3203546 3138652 3049486 3033354
2275.61 2974950 2888880 2910492 2800640 2759466 2760880
2278.50 2647318 2518578 2596668 2482998 2491754 2389526
2281.39 2475326 2418636 2385970 2282570 2257474 2240680
2284.28 2237722 2114460 2090314 2086666 2110272 2079700
2287.18 2063490 2010580 2052534 1939036 1933138 1926576
2290.07 1859182 1911168 1902970 1858044 1876388 1837742
2292.96 1832792 1769784 1756404 1772406 1678002 1704768
2295.85 1723620 1596764 1687486 1604238 1651274 1612786
2298.75 1575246 1614726 1591620 1626664 1617148 1520830
2301.64 1492310 1569748 1448892 1515130 1412760 1540224
2304.53 1493150 1486042 1464458 1548556 1572542 1487482
2307.43 1501296 1503370 1580898 1588230 1388958 1551906
2310.32 1570122 1652650 1502070 1667878 1550822 1720556
2313.21 1465088 1577714 1500504 1841110 1476650 1517206
2316.10 1392040 1819578 1579766 1580612 1571216 1897016
2319.00 1579498 1452578 1358598 1761846 1741126 1419934
2321.89 1361392 1877080 1763006 1430672 1470726 1947068
2324.78 1962978 1352196 1526328 2024890 1958214 1452966
2327.67 1694686 2185316 1871206 1291678 1667510 2182712
2330.57 1645614 1184168 1884104 2154958 1450498 1251378
2333.46 2211138 2047322 1254812 1471494 2248956 1680270
2336.35 1115210 1792038 2141062 1284594 1255902 2144268
2339.24 1794732 1041556 1717212 2028848 1291074 1196318
2342.14 1865138 1537232 1110832 1492266 1660500 1141178
2345.03 1378828 1670176 1334418 1168848 1343204 1254062
2347.92 1110316 1097748 1101496 1170690 1104084 1072266
2350.82 1313712 1235066 997656 1329244 1420018 807470
2353.71 1416630 1480380 836400 1493874 1613040 684068
2356.60 1584770 1554294 761840 1725722 1484480 677950
2359.49 1759176 1289318 738286 1951980 922862 913260
2362.39 1889278 605966 1367112 1504540 604110 1643138
2365.28 909948 789066 1577078 417790 1318224 1013284
2368.17 675548 1360590 460972 1096590 790184 663794
2371.06 1004082 422998 979140 453352 820984 632986
2373.96 524182 713560 417970 665566 513094 621764
2376.85 412152 513462 307450 452114 361638 385880
2379.74 379942 443678 363024 285286 326128 383274
2382.64 340688 338714 372472 368436 345730 334524
2385.53 317024 304610 313086 321102 327198 297742
2388.42 285806 348366 403794 306256 348110 395154
2391.31 418086 362044 361774 344798 455114 471390
2394.21 429902 512188 501506 495272 518826 577282
2397.10 510952 626718 586830 627410 687490 611994
2399.99 706700 634486 727776 796408 819954 811748
2402.88 952256 947656 956220 965470 1063030 1072656
2405.78 1060634 1067182 1138520 1130130 1228284 1191156
2408.67 1240458 1296414 1357010 1337850 1371248 1429510
2411.56 1480822 1532254 1565650 1547620 1618130 1609126
2414.46 1633920 1602216 1719812 1739294 1816832 1802072
2417.35 1785128 1893160 1921838 1891786 1913026 1969886
2420.24 1980942 2042714 2015820 1995360 2062442 2042658
2423.13 2192340 2094718 2111354 2066894 2191210 2105044
2426.03 2145084 2086540 2152124 2098140 2114472 2139298
2428.92 2193574 2184734 2219120 2221874 2292384 2143786
2431.81 2186250 2202440 2109900 2102120 2145676 2092934
2434.70 2143590 2050416 2085490 2179440 2070300 2018024
2437.60 2133624 2038488 2031398 2043532 2124854 2166880
2440.49 2153098 2221592 2247288 2350878 2617628 2573630
2443.38 2364112 2145902 2035604 1976330 1970734 1895668
2446.28 1935838 1879282 1892098 2001878 2149626 2362948
2449.17 2551530 2233680 1940692 1625874 1474084 1306182
2452.06 1248842 1138090 1086052 1009842 993402 1019738
2454.95 998720 883224 923594 934844 886204 891348
2457.85 738630 742814 732520 733798 736396 729982
2460.74 719574 734554 672962 693296 722946 675748
2463.63 691406 590976 724302 651994 671124 610176
2466.52 638622 589202 569018 551402 634854 556234
2469.42 613444 560820 567378 554628 584568 550826
2472.31 590752 610606 715378 488702 645308 600012
2475.20 621640 610602 649742 558162 641104 629796
2478.10 693240 637692 709028 763228 764678 719086
2480.99 734526 726404 820676 786750 878774 825110
2483.88 809262 863188 917796 872460 899178 821764
2486.77 986698 952352 1009336 960878 900184 993276
2489.67 919906 1002076 1032612 943596 988740 1028822
2492.56 1030908 1038124 1059962 1034790 1133708 1091458
2495.45 1106194 1057462 1060812 1025822 1151760 1141468
2498.34 1173068 1200192 1201920 1142702 1225860 1157396
2501.24 1200552 1233516 1211234 1353448 1261908 1314324
2504.13 1288636 1378116 1321834 1330272 1275530 1269618
2507.02 1322712 1389734 1328004 1355852 1374306 1394968
2509.92 1431412 1339498 1353994 1343928 1349262 1333326
2512.81 1340358 1254972 1400604 1253442 1294630 1282456
2515.70 1339020 1354994 1408514 1260030 1332222 1366208
2518.59 1321426 1260436 1425692 1219302 1351194 1349472
2521.49 1240330 1281512 1357802 1325304 1433212 1462252
2524.38 1533770 1539908 1409038 1482662 1525896 1350720
2527.27 1492648 1484366 1545840 1544170 1522446 1555100
2530.16 1679294 1614596 1693362 1633606 1686954 1719584
2533.06 1757570 1755568 1786370 1799386 1789640 1802832
2535.95 1955924 1938426 1992450 2008062 2024238 2098912
2538.84 2145930 2153242 2178986 2135302 2289496 2251760
2541.74 2364498 2291348 2449872 2582898 2623918 2572360
2544.63 2598182 2744154 2739236 2806514 2925142 3006392
2547.52 3158458 3152706 3300814 3390468 3366170 3460130
2550.41 3569692 3676788 3841210 3848582 3979624 4030818
2553.31 4284178 4255208 4340560 4417902 4566438 4625740
2556.20 4730918 4825558 4918918 5004414 5059092 5183160
2559.09 5358352 5273354 5458618 5413074 5481690 5584510
2561.98 5616794 5564826 5676938 5681032 5679364 5689982
2564.88 5692782 5662052 5653696 5756888 5693684 5734818
2567.77 5837486 5876536 5877664 6013922 6145380 6119380
2570.66 6083262 6087318 6111382 6264016 6499412 6645604
2573.56 6986794 7432010 7798638 7626538 6393388 5729304
2576.45 5502278 5502328 5539602 5638140 5526266 5518266
2579.34 5515936 5453862 5564230 5666436 5812498 5822224
2582.23 5961522 6004440 6007540 5960636 5927106 5915958
2585.13 5920654 5782728 5846650 5628328 5590578 5433096
2588.02 5442066 5271512 5143484 5000432 4823862 4733408
2590.91 4489588 4381638 4220508 4078470 3839024 3689168
2593.80 3534716 3295736 3259868 3003654 2858014 2755976
2596.70 2567462 2425742 2271906 2178640 2138780 1985182
2599.59 1942064 1720848 1741522 1650654 1526440 1484876
2602.48 1441922 1430084 1337296 1283720 1290474 1296938
2605.37 1140158 1245620 1132850 1066818 1073128 1048930
2608.27 985882 1017470 1088142 987014 1022790 1017484
2611.16 1014238 1021730 980792 994198 1047140 998608
2614.05 1062732 940628 936580 942422 1019374 866090
2616.95 905836 1022392 972568 915678 937498 963902
2619.84 1005820 1063012 995688 1021046 991672 1012372
2622.73 1008914 1029876 1022868 979992 1044834 1029824
2625.62 1052122 1084790 1098514 1148084 1213180 1161264
2628.52 1119536 1150604 1171564 1229578 1154782 1130530
2631.41 1110972 1117894 1164564 1255526 1205896 1124842
2634.30 1231898 1273072 1194576 1326562 1214858 1160216
2637.19 1267874 1223996 1254674 1315180 1318026 1273302
2640.09 1289576 1305710 1225170 1280038 1379336 1193406
2642.98 1332708 1334302 1338188 1316664 1295886 1224554
2645.87 1290328 1347476 1268438 1334418 1174694 1270806
2648.77 1260632 1176160 1231174 1241752 1266212 1206878
2651.66 1197732 1134536 1248582 1181016 1239680 1196668
2654.55 1147510 1229084 1194910 1149578 1221280 1270900
2657.44 1153118 1106690 1178122 1106884 1207048 1047252
2660.34 1045112 1127700 1244716 1107646 1009526 1054244
2663.23 1037536 1021612 1047594 931636 971348 968704
2666.12 896052 1001566 734216 912402 883710 880400
2669.01 823896 847322 870634 802196 724314 752184
2671.91 768374 694468 737872 701388 683172 701074
2674.80 675002 647330 701130 611428 619190 692146
2677.69 592802 707366 752502 626502 624536 690852
2680.59 751556 698380 658220 724518 682918 714700
2683.48 776434 715044 678546 766556 710590 701104
2686.37 705538 703400 881310 772744 819322 738316
2689.26 795130 844412 789806 857434 788952 792014
2692.16 787574 789940 778022 818186 827444 819884
2695.05 747428 850398 856248 769536 827626 822942
2697.94 936086 974268 943340 821252 816644 811530
2700.83 819568 949536 872586 831700 950900 992346
2703.73 989436 1011306 1061412 1171308 1188782 1201038
2706.62 1166580 1100422 1220296 1085538 1100472 1210778
2709.51 1133682 1166700 1308878 1344494 1126520 1274322
2712.41 1241702 1251224 1213308 1313064 1265022 1292362
2715.30 1281870 1276432 1121856 1220294 1131856 1216656
2718.19 1146540 1294576 1130974 1076124 1166008 1003894
2721.08 1045044 1005586 1055244 1054886 1042376 1018350
2723.98 1028096 973920 976156 1039726 965706 915154
2726.87 1098302 943502 971158 1020638 950304 878772
2729.76 958184 735408 844330 933794 967130 919582
2732.65 1063916 962102 941290 930618 1023462 972664
2735.55 1004596 1063776 1027372 1025602 1021094 932746
2738.44 912492 950254 1011766 979598 1050810 1145062
2741.33 1043612 1117140 966770 1078672 1049876 1079784
2744.23 1133480 1147194 1063332 1123938 1110906 1159704
2747.12 1099672 1166598 1219026 1222178 1242578 1245018
2750.01 1333770 1258128 1326412 1324852 1401948 1336724
2752.90 1402220 1457876 1458766 1576656 1580370 1463792
2755.80 1564856 1612656 1609028 1679130 1723980 1794846
2758.69 1734372 1872770 1926714 1990060 2043270 2011478
2761.58 2155924 2174884 2278912 2283718 2241968 2416408
2764.47 2477168 2540886 2520774 2534352 2656684 2685106
2767.37 2838124 2936118 2845494 3048766 3041040 3104172
2770.26 3252314 3349452 3512784 3500718 3604576 3758374
2773.15 3732692 3979364 4000750 3972036 4173678 4064830
2776.05 4244558 4339830 4502336 4640024 4762996 4799666
2778.94 4705846 4769958 4721492 4704408 4894668 4909454
2781.83 5042942 4984060 5071866 5066474 5125640 5111266
2784.72 5327742 5284684 5388322 5528986 5452062 5599548
2787.62 5567366 5637700 5828640 5946398 5750520 5893158
2790.51 5935540 5950074 5985590 5935362 6064656 6115230
2793.40 6161988 6258166 6235774 6391626 6554118 6487824
2796.29 6601144 6791414 6778120 6814616 6838192 6544098
2799.19 6610506 6612988 6479302 6632248 6588146 6723568
2802.08 6714094 6657678 6665646 6763890 6745494 6600596
2804.97 6644140 6797052 6867284 6801146 6780094 6673124
2807.87 6689348 6686950 6689906 6757694 6664404 6804536
2810.76 6562462 6695526 6784812 6659660 6821450 6705578
2813.65 6811850 6929630 6911764 6880430 6869528 6995734
2816.54 6837586 7012766 6978284 7075832 6990120 7101882
2819.44 7132140 7316404 7369226 7602950 7660984 7519234
2822.33 7779202 7825738 7797694 8123058 8339754 8294122
2825.22 8394266 8765698 8800132 8922268 9085890 9293646
2828.11 9527786 9534634 9826140 10055630 10170020 10504150
2831.01 10724800 11053220 11270680 11548660 11730610 12125050
2833.90 12275930 12446650 12709650 12943410 13267600 13545820
2836.79 13768140 14059870 14171890 14377400 14713710 14799270
2839.69 15144020 15292690 15558260 15764700 15969060 15885790
2842.58 16281420 16383920 16612520 16668730 16856740 16949590
2845.47 17128450 17283780 17512510 17474960 17688510 17831360
2848.36 17876000 18106450 18172310 18443040 18510620 18582040
2851.26 18881230 18913860 19037990 19176470 19357130 19458510
2854.15 19478290 19500140 19590180 19790900 19902830 20046950
2857.04 20084350 20111660 20093640 20295360 20186410 20245190
2859.93 20309060 20376500 20563570 20615290 20833350 21066730
2862.83 21226030 21477900 21634710 21590030 21482630 21298210
2865.72 21359380 21111390 21064860 21081360 21014790 21075360
2868.61 21044220 20804660 20780190 20586860 20361340 20411410
2871.51 20340230 20134190 20141270 19978280 19797210 19657880
2874.40 19789590 19554540 19483530 19281050 19306830 19271210
2877.29 19206220 19131260 19004860 19074310 18863860 18901600
2880.18 18823000 18764980 18758600 18693970 18737770 18593810
2883.08 18709930 18685980 18769120 18636110 18838970 18958450
2885.97 18821230 18965430 19123860 19131940 19344870 19339620
2888.86 19448960 19646970 19782530 20042250 20324900 20616860
2891.75 21186580 21462890 21452910 21748110 21772620 22104620
2894.65 22125100 22514520 22804410 23289790 23729370 24174530
2897.54 24544010 25277440 25585020 26109600 26622420 27112800
2900.43 27806650 28352590 29019910 29739870 30311640 31092110
2903.32 31892200 32673890 33614650 34489100 35566170 36358220
2906.22 37404620 38546980 39416220 40649790 41535380 42609240
2909.11 43871600 45405970 46894570 48249370 49523550 50889730
2912.00 52062030 53567560 54929900 56487940 57605560 59037380
2914.90 60534060 61889570 63325470 64837750 66304960 67540820
2917.79 68769590 69920630 71088180 71946980 72792760 73595460
2920.68 74466500 74957760 75876900 76763970 77284220 77892530
2923.57 78860910 79456070 79946040 80402960 80782530 81117450
2926.47 81315220 81769060 82348580 82671680 83778060 84844740
2929.36 84500200 83700740 83436480 83256060 82973220 82883510
2932.25 82558700 82474000 82730890 83320090 84418710 86015860
2935.14 87623590 89561060 91448650 93220210 94839880 96074540
2938.04 97286770 98413430 99564610 100371800 101610000 102947800
2940.93 104484300 106194400 105928800 106136100 106462300 106770800
2943.82 107204000 107845300 107817000 108401100 108717500 108818200
2946.72 108956300 108715000 108579500 108117000 107753900 107273300
2949.61 106361100 105854200 105141600 104200400 103334900 102393700
2952.50 101840100 101013700 100006900 99099220 97794660 97089620
2955.39 95963970 95333140 94291510 94492140 93224940 91774460
2958.29 91040220 89635110 88125860 86727980 86205860 85799050
2961.18 85285460 85577380 85457400 86061490 86580580 88211520
2964.07 90193820 93004490 96519810 101467500 108203800 116108100
2966.96 124501000 135623400 152556800 181395200 238925200 307939100
2969.86 285780700 238151200 207379100 183323800 161949800 142736300
2972.75 127483800 116304300 107847100 101448500 96808330 92630980
2975.64 90028950 88318230 86793500 85274080 84035390 83048900
2978.54 82840970 83008590 83442900 83887690 84283560 84872300
2981.43 85678820 86844730 88127210 89425020 90809920 92095180
2984.32 92979580 94052580 95330550 96240810 97536440 98287640
2987.21 99153700 99925330 100780400 101675100 102358800 103205000
2990.11 104078800 104827200 105403900 106389300 107144800 108172500
2993.00 108895700 109942600 110943200 112188600 113262400 114257100
2995.89 115284800 116105800 117256500 118228000 119510300 120424100
2998.78 121416200 122390100 123434400 124177600 124932300 125690000
3001.68 126194100 126755700 127186500 127551900 127811900 128230000
3004.57 128011400 127939100 127523300 127433900 127445100 127317500
3007.46 126413000 126086200 125587500 125120800 124337400 124064400
3010.36 123117300 123221300 123481300 123967600 124411400 125706600
3013.25 127197400 129541800 132041400 134552900 135989700 137526400
3016.14 140066200 147016100 139325200 124887800 121092500 119651600
3019.03 119908300 120199800 120912900 121780800 123050800 123619700
3021.93 124098200 124314400 125020200 125180100 125815500 126018600
3024.82 126318200 126189800 126433000 126742600 126417200 126199600
3027.71 125718900 124871000 124102800 122648400 121353000 119639400
3030.60 117864600 115842800 113615600 111247200 108692400 105863700
3033.50 103507500 100505700 98198700 95542620 92954340 90439900
3036.39 88115100 85513280 83125190 80592450 78319340 76078550
3039.28 73807150 71569190 69789570 67406370 65442200 63717780
3042.18 62298820 61174950 60004340 59152230 58224790 57379440
3045.07 56532740 55783300 55059760 54285480 53515520 52792170
3047.96 52339950 51641880 51303690 50727390 50225060 49819750
3050.85 49605690 49187080 48992780 48718260 48649040 48506730
3053.75 48517490 48401100 48248700 48009420 47969240 47620970
3056.64 47470810 47259750 46999410 46772020 46707900 46405230
3059.53 46254380 46002790 45912020 45623320 45606000 45498740
3062.42 45543190 45303920 45234030 45378100 45396550 45279330
3065.32 45078540 44821010 44903080 44573260 44546600 44538560
3068.21 44466790 44485850 44409820 44228720 44131360 43955210
3071.10 43941360 43550760 43684680 43522650 43273700 43076280
3074.00 42903900 42562740 42204900 41971410 41712480 41541510
3076.89 41170800 40818490 40838980 40619410 40555310 40051780
3079.78 39923870 39796850 39449080 39134000 39002380 38838220
3082.67 38458490 38287830 37762700 37430470 37122960 36746300
3085.57 36522000 36128510 35945420 35653380 35381110 35114540
3088.46 34961010 34451220 34301890 33764370 33614780 33162700
3091.35 32527180 31852670 31552200 30888650 30318380 29816780
3094.24 29437370 29004460 28463390 27878340 27609120 27026590
3097.14 26708230 26382590 26106460 25796580 25564690 25123230
3100.03 24857660 24503910 24200730 23793160 23287530 22955910
3102.92 22738930 22269870 21686280 21469400 20967410 20520390
3105.82 20378430 19785990 19426250 19027120 18653030 18351250
3108.71 18125130 17567970 17285450 16927110 16384860 16100110
3111.60 15899780 15541930 15223730 14887930 14452400 14017780
3114.49 13722280 13518820 13216980 12826130 12437760 12407340
3117.39 12138410 11682360 11562040 11127890 10868240 10604790
3120.28 10632090 10448250 10101320 9883960 9760308 9509802
3123.17 9223830 9054856 8905376 8739920 8483366 8484952
3126.06 8171066 7994340 8021670 7858994 7577926 7436260
3128.96 7288282 7170072 7136682 6962296 7004412 6714818
3131.85 6719558 6597030 6353118 6211040 6224134 6217832
3134.74 6079662 5917910 5853436 5813094 5929666 5761054
3137.64 5800300 5483576 5386764 5419120 5572288 5539850
3140.53 5406996 5230760 5043850 5014330 5105172 4944754
3143.42 4894468 4897314 4856040 4836856 4746676 4630792
3146.31 4755782 4666482 4789928 4610556 4620538 4747054
3149.21 4676438 4587456 4756720 4656154 4326182 4309108
3152.10 4600516 4644702 4457200 4353186 4342162 4148450
3154.99 4186620 4209388 4203188 4108894 4296466 4219576
3157.88 4198124 4043898 3994812 4103428 4105304 3951782
3160.78 3891064 3947028 3786300 4048508 3975904 3992866
3163.67 3785596 3884040 3907418 3913750 3797684 3831010
3166.56 3674752 3789584 3719102 3780184 3788568 3671904
3169.46 3731094 3699942 3740790 3516368 3647896 3650980
3172.35 3499366 3412602 3523308 3371150 3400624 3461776
3175.24 3471886 3538562 3386334 3440068 3518040 3405666
3178.13 3321200 3344878 3382270 3104478 3120482 3134702
3181.03 3160954 3138232 3122228 3036648 3232042 2993214
3183.92 3093816 2985522 2984174 2899146 2868980 2909666
3186.81 2792484 2725076 2780462 2740898 2850022 2680550
3189.70 2615638 2582630 2626388 2741882 2585776 2407212
3192.60 2521430 2466884 2556908 2434458 2529002 2300186
3195.49 2507260 2430260 2212918 2353716 2358290 2247586
3198.38 2360958 2308480 2137326 2178958 2212488 2152840
3201.27 2088342 2043840 2250912 1972786 2001870 1961018
3204.17 2037700 1906688 1991978 1940662 1914140 1907992
3207.06 1973064 1833558 1950318 1804258 1776880 1783988
3209.95 1963642 1878674 1695474 1724482 1860940 1862232
3212.85 1524994 1734518 1814306 1548826 1726530 1620504
3215.74 1779288 1613668 1561286 1616784 1598976 1507836
3218.63 1576916 1576496 1730772 1552676 1470396 1536962
3221.52 1599396 1550500 1523806 1402500 1391874 1500394
3224.42 1563130 1612916 1476036 1423036 1454978 1332510
3227.31 1296450 1401640 1403162 1429090 1359806 1498632
3230.20 1479704 1375348 1383054 1468700 1510402 1212286
3233.09 1194766 1258522 1395348 1246946 1352000 1304588
3235.99 1328750 1405536 1248132 1313666 1452714 1378864
3238.88 1286374 1195252 1301126 1269406 1270068 1291414
3241.77 1171682 1220158 1126142 1305684 1273660 1238834
3244.67 1402828 1112822 1100030 1229054 1148696 1155592
3247.56 1109392 1257402 1129464 1026140 1087574 1263746
3250.45 1186344 1240772 1153338 1001882 1234562 1274034
3253.34 1258500 1186596 1306894 1037534 979848 1216276
3256.24 1091318 1222696 1071438 1055124 1191228 1137196
3259.13 935622 1058378 1091696 1090272 1034038 1140456
3262.02 1067418 1113302 884638 998660 1075250 1111256
3264.91 1007336 872798 1090012 997040 1008832 860998
3267.81 1034676 958572 870650 1007494 986220 787706
3270.70 868764 941292 1085042 1092174 1019482 1004050
3273.59 931830 912368 984228 996970 911260 1069276
3276.49 1029728 1000006 951260 1075714 942694 884602
3279.38 884996 1003864 1096778 1032348 1068878 898268
3282.27 1087142 1019428 923196 1082528 982736 885264
3285.16 936170 1017342 1088548 1050504 881134 1192400
3288.06 1249626 1087404 955596 1016800 943566 1045906
3290.95 1097970 1166688 1185502 1055790 973346 842064
3293.84 1083496 1081740 960374 938292 1045268 969920
3296.73 952196 1015520 1005124 1098896 950778 1061222
3299.63 1250394 1014502 1190776 1009564 1013022 874272
3302.52 934632 942456 961230 828132 984404 1159780
3305.41 858510 1032716 966672 1045636 1006802 1047124
3308.31 1052190 1154800 1125406 1179918 961366 1086978
3311.20 987416 1101316 871398 790108 966530 836776
3314.09 1128794 809018 1064378 1008158 889926 972348
3316.98 1068342 1016272 943034 1016190 821338 995340
3319.88 977722 692090 957166 851568 875630 854996
3322.77 881250 910364 737252 829736 963194 855790
3325.66 846844 814874 905924 914482 927984 793758
3328.55 789370 628862 761910 706570 612164 650080
3331.45 912698 764936 649194 670098 711886 571786
3334.34 823016 683340 606848 708836 679216 615450
3337.23 488112 701824 380414 848988 611752 675800
3340.13 688330 713064 438990 657782 569652 539550
3343.02 559452 716346 583326 602332 465600 478806
3345.91 561408 583846 604430 713552 702774 556928
3348.80 735060 651230 407838 460048 507632 578088
3351.70 635332 571240 530190 748672 629366 714840
3354.59 557530 527196 586504 735558 482690 685206
3357.48 567170 675890 724832 675816 690916 565308
3360.37 458078 704162 535352 791826 596424 671586
3363.27 737766 765712 833076 769560 688542 712228
3366.16 577924 758406 761666 736638 800478 600414
3369.05 526294 1092262 806934 869228 924432 907296
3371.95 958370 930526 1021084 901154 1201596 953922
3374.84 1063226 1124136 1139544 1018210 1115510 1008696
3377.73 1324020 1327406 1258280 1240396 1095554 1260010
3380.62 1162770 1397586 1309176 1376626 1323768 1331524
3383.52 1592220 1513608 1216806 1312584 1333238 1378634
3386.41 1495656 1407632 1439194 1363464 1401190 1289574
3389.30 1420614 1334504 1443358 1442304 1396280 1589502
3392.19 1652898 1560834 1390692 1484170 1359920 1328728
3395.09 1388494 1341360 1467426 1566864 1401710 1642962
3397.98 1579162 1521392 1393220 1380774 1425344 1400656
3400.87 1644368 1551990 1594318 1558638 1634914 1532250
3403.77 1523760 1649674 1614424 1486816 1691264 1511964
3406.66 1790840 1688374 1782568 1670356 1796750 1751402
3409.55 1839442 2123442 2045134 1917102 2022966 2133896
3412.44 2144740 2345214 2359196 2497480 2564546 2643464
3415.34 2715104 2950048 2894684 2992814 3283330 3396666
3418.23 3320232 3610302 3840262 3991102 4406108 4132542
3421.12 4657288 4826944 4892052 5279228 5510688 5782304
3424.01 6040056 6192122 6512038 6829182 7034954 7615672
3426.91 7787440 8156438 8421392 8868186 9342512 9528294
3429.80 10029720 10316160 10911610 11037100 11542090 11633650
3432.69 12460290 12832980 13134120 13663930 13907620 14360590
3435.59 14617900 14969550 15370290 15713640 15983050 16478250
3438.48 16732450 16973500 17395200 17614010 17878750 18069000
3441.37 18420760 18775550 19172540 19363320 19651010 19724800
3444.26 20064520 20348150 20515360 20747240 21151530 21614270
3447.16 21544690 21702160 21759280 21750020 21675260 21318110
3450.05 21357260 21869880 22135070 22670960 23234190 24065840
3452.94 24759740 25351700 25761170 25969420 25989130 25727580
3455.83 25668530 25617160 25534680 25409910 24980250 25140110
3458.73 25097280 24741100 25047180 25001120 24759640 24925710
3461.62 24737570 24958080 24865270 24829030 24560150 24629910
3464.51 24446800 24204750 24033910 23912560 23754500 23429540
3467.40 23170350 22702500 22645830 22456220 21762630 21776360
3470.30 21423520 20945930 20707950 20567480 20031390 19510810
3473.19 19307380 18761590 18634270 18224160 17780720 17140310
3476.08 16991370 16551500 16159600 15656970 15424850 14789760
3478.98 14497120 14273530 13875560 13521730 13143710 12823550
3481.87 12440380 12080330 11778450 11470650 11127950 10646320
3484.76 10391250 9959322 9786080 9482506 9039670 8837446
3487.65 8545920 8226870 8269110 7931922 8030346 7868786
3490.55 7729894 7642130 7285268 7233574 6988828 6808202
3493.44 6887412 6711712 6806664 6658550 6364114 6275432
3496.33 6147492 5805532 5791334 5460992 5387862 5281682
3499.22 5312330 5182322 5040558 4858252 4954210 4705736
3502.12 4557680 4711246 4629578 4063974 4246164 3916672
3505.01 3905478 3470472 3750720 3530598 3395492 3067614
3507.90 3328470 3092540 3097280 2901042 2565432 2695998
3510.80 2597460 2650854 2460130 2252494 2379610 2240800
3513.69 1960544 2036256 1991766 1910774 1742282 1635308
3516.58 1687960 1569270 1592650 1500396 1575064 1499780
3519.47 1495122 1272974 1186578 1359328 1254508 1051768
3522.37 1299254 1203704 1195300 1220232 980290 990358
3525.26 1216878 913332 983800 1075510 886450 983096
3528.15 779266 947510 798202 644710 807952 773768
3531.04 630824 537250 476364 636498 471720 391716
3533.94 471144 371220 429232 572696 543196 490972
3536.83 446330 347098 336330 433780 255954 216694
3539.72 434920 77990 105342 97428 234104 392512
3542.62 355680 310916 393350 98046 580832 311514
3545.51 10584 127642 848456 288242 141632 251484
3548.40 50082 80066 121182 163466 234078 202904
3551.29 187990 659234 417068 175016 341464 91782
3554.19 121130-49016 285986 85676 137140 280354
3557.08 227344 175728 201278 281616-20782 303868
3559.97 310262 67928 142028 149322 325002-74118
3562.86 345464 239798 212506 242986 203902 699616
3565.76 715282 1198276-12938 640288 1484776 287736
3568.65 37928 20062 34654 125262 169168 37800
3571.54-132710-32658-74460-204546-115562-36474
3574.44-21874-225204-105582-27060 18584-30142
3577.33-213978-245570-175032-29320 137964 88990
3580.22-112922-180320-216188-74940-57956-334462
3583.11 25952-281176-35844-147656 96508-57294
3586.01 1614616 362296 198572-288138 1332992 1805724
3588.90-584614 116432-263266-43360-302446 4662
3591.79-67882 213792 487854-32846-70414-215060
3594.68 505326 385914 184712-34232-146954 45966
3597.58 2874 149518 5064 183464 3184 70270
3600.47 379376 220340-71196-6194 70222 40708
3603.36-158192 73322-101650-35708 194922-42790
3606.26 497328 873006-250406 341062-252428 3123284
3609.15 1195196-189282 221112-307028 129676 52304
3612.04 2200032 486594 96292 54116 924672 302636
3614.93 278244 20366 181702-277366 656788 1201040
3617.83 229126-39334 1280982 2788160-98252 447722
3620.72 364484 211828-24230 154372 115866 277550
3623.61-82998 114978 5870 86340 245022 363298
3626.50 185500 197560 1062082 4479586-407820 4322168
3629.40 3034314-212070 723866-141202 296380-112318
3632.29 237610 48138 1130870 271964 172968 60662
3635.18 177028-59024 255894 87976 163402 366806
3638.08 306376 150084 132354 118168 203790 17946
3640.97 156776 124586 405630 95460 281642 88522
3643.86 178624 88412 489280 88408 880510 708994
3646.75 2378418 1236406 547744 123202 5567578 2375162
3649.65-34306 2158828 1410638 1930380-208088 587966
3652.54 43996 276688 82798 238374 418716 324828
3655.43 1368948 4017372 45928 567070-79474 342036
3658.32 58830 382938 92826 297768 56012 427652
3661.22 142866 346808 66200 264832 252884 329390
3664.11 71858 306870 220246 291642 378860 294802
3667.00 492610 105626 1429258 2367488 348884 442746
3669.90 2587758 7138774-400274 1247388-290540 969386
3672.79-300170 1249620 45352 3704700 2231110 3254030
3675.68 6046222-25822 856092 400652 581202 331062
3678.57 814192 1483894 261940 757552 355586 484648
3681.47 164366 494358 142068 636208 232448 583732
3684.36 294890 772560-136534 748940-100024 1460030
3687.25-357124 6104090 5851386-253948 916478 439480
3690.14 952534 2137638 2231390-43238 858862 274062
3693.04 769808 204794 709360 384980 697824 332762
3695.93 713922 373434 610138 361508 539314 454926
3698.82 634316 399000 447878 555940 786454 2329344
3701.72 1244934 425360 703900 353380 591236 334872
3704.61 650890 463484 687302 388600 745616 259412
3707.50 702916 437710 1298300 2759924 962540 333052
3710.39 1239042 580448 2857358 5540682 636394 1006998
3713.29 373524 623194 914542 675090 364666 813670
3716.18 485756 776468 509908 671596 792138 1385836
3719.07 543816 663042 482612 823288 365312 1557542
3721.96 1511424 738312 670028 704846 770598 1246088
3724.86 1005940 450226 1525548 2184374 280754 1038436
3727.75 435724 1004826 491468 813584 660642 1027166
3730.64 802104 1174362 4883158 2158458 444462 1339634
3733.54 708486 2464642 2234778 2610136 347690 3357878
3736.43 4553466 199314 1134300 1502528 1215310 844402
3739.32 811640 812340 1043748 1537540 990540 684810
3742.21 969164 1005922 2067328 4880394 11143920 4346520
3745.11 1027744 1171716 731350 1226414 1016888 1319692
3748.00 666866 3339420 8726560 2316942 668712 1679136
3750.89 772772 4269298 9338186 1089852 1437538 888838
3753.78 1173124 563972 1314566 937168 1372454 2028086
3756.68 947186 927160 895634 998564 1252928 1993380
3759.57 2573622 692544 1066184 773744 1145506 869618
3762.46 1057632 885486 1009312 869540 1150408 1391918
3765.35 2694156 901260 1121182 669132 1276892 873004
3768.25 1268422 699770 3155370 2914272 786572 1299568
3771.14 1112372 1116754 970054 1113888 920638 1106794
3774.03 1115546 911976 996892 960220 1018414 1174894
3776.93 1024240 1255518 1480864 1097740 2589706 2145004
3779.82 936350 1344754 1142496 1431464 1228866 1315610
3782.71 1128176 1317586 1363926 1730136 1648806 1394092
3785.60 1133854 1385262 1330978 1312678 1260418 1368842
3788.50 1214816 1456836 1303436 1477576 1360888 1445960
3791.39 1327990 1455328 1185988 1538174 1181704 1499818
3794.28 1346712 1769316 1217342 2908698 2625464 1355106
3797.17 1820798 1767230 1366962 1857144 1430572 2280030
3800.07 1524450 4362550 9385308 1824254 2168770 2381702
3802.96 1952556 1816166 1789476 1764258 1708904 2243620
3805.85 1408660 5885372 5210634 993702 2286894 1078510
3808.75 2072438 1510988 1884262 1238560 1831174 1218430
3811.64 2013858 1416876 2029152 1317082 2019532 1226790
3814.53 2315606 1479852 9095742 4858724 1080570 2160306
3817.42 1207678 2098540 1587876 1879168 1821626 2673120
3820.32 4479896 2480312 5209372 2343936 1637416 1766574
3823.21 1479588 1876984 1602996 1465518 1747804 1315164
3826.10 2502262 2236904 1360508 1831706 1365862 1621822
3828.99 1393846 1468714 1536442 1497610 2607032 3539288
3831.89 1038234 1897126 996222 1928422 909724 3790392
3834.78 2451700 1503882 1057532 2162048 523028 7930608
3837.67 6613056 392240 2042778 1002034 2450510 896632
3840.57 3434958 1182756 1263178 1169788 1175384 2012964
3843.46 2598524 722876 1531038 702074 1224344 747968
3846.35 1258140 725290 1263024 810328 1274498 1016646
3849.24 1405854 823446 1276442 641284 3096906 7697460
3852.14 1257908 1532414 3031298 10652000 7601486 930848
3855.03 1395262 657756 1052328 1265556 1671032 760752
3857.92 1020280 739448 871784 651028 1136144 890796
3860.81 1055786 2401994 1273918 555278 1101224 861948
3863.71 1324320 1531468 4335554 861308 1244072 450596
3866.60 1145802 232362 1323732 254262 2867262 1183978
3869.49 5007244 3315814-125676 1359334 440744 1073184
3872.39 546534 1025880 1089290 2427570 1111410 552088
3875.28 896698 537962 779912 646574 632962 698964
3878.17 663462 837638 692932 2652686 1621052 978188
3881.06 1081754 481766 817050 850052 1296136 380188
3883.96 1250894 317078 3166710 4483520 883086 696012
3886.85 806492 731536 620108 705788 791096 811318
3889.74 836746 621096 3773320 2341070 658480 1106128
3892.63 783490 906604 1015426 1010024 666370 881904
3895.53 753236 907090 814204 1004922 1032996 1051226
3898.42 1419558 3704904 1217278 880416 993190 1238048
3901.31 3703192 1802412 1006762 1184146 1415582 4313776
3904.21 1562576 1086544 1391868 1702038 1129388 1159546
3907.10 932940 1263660 1025062 1098248 1054820 1220840
3909.99 976094 1152998 1316072 1048536 1284758 1160726
3912.88 1289644 1221012 1371858 1315062 1344128 1102818
3915.78 1663444 1444416 2857524 1633884 1198852 1437288
3918.67 1332104 1616562 2374378 1390980 1292242 1315322
3921.56 1368156 1445732 1386426 1562778 1601444 1437110
3924.45 1972838 1971056 1350354 1247396 1221796 1400138
3927.35 1454390 1447110 1524732 1746812 1424692 1501116
3930.24 1554710 1366302 1523416 2107454 2000342 1462838
3933.13 1511440 1464130 1523666 1738348 1599882 1427504
3936.03 1584088 1294408 1282364 1562290 1549532 1460046
3938.92 1513056 1473668 1486216 1577952 1402734 1432020
3941.81 1608368 2117602 1543812 1383932 1669456 1399228
3944.70 1592218 1463150 1583000 1407878 1598624 1719680
3947.60 1580832 1475422 1339524 1662930 1937174 1434670
3950.49 1521444 1471006 1406432 1532798 1411410 1392224
3953.38 1411754 1513986 1542048 1662746 1422616 1433156
3956.27 1449696 1606022 1517330 1613932 1580722 1541918
3959.17 1694346 1537530 1690872 1619338 1683538 1846190
3962.06 1676272 1677014 1527884 1660842 1770618 1765980
3964.95 1750634 1837150 1775026 1782914 1755712 1968476
3967.85 1806780 2008440 1998874 2044016 1976724 2042330
3970.74 1922660 2143332 2349776 2282832 2085556 2286632
3973.63 2185178 2426876 2478318
##END=
