##TITLE=Acetone
##JCAMP-DX=4.24
##DATA TYPE=INFRARED SPECTRUM
##CLASS=IUPAC A
##ORIGIN=NIST, Anayltical Chemistry Division, 301-975-3108
##OWNER=COPYRIGHT (C) 1998 by the U.S. Secretary of Commerce
##DATE=98/10/1
##$SPECTRA VERSION=1.00
##$UNCERTAINTY IN Y=2.3 % relative (B=1.3E-04,C=1.7E-09,D=2.7E-14)
##CAS NAME=2-Propanone
##CAS REGISTRY NO=67-64-1
##MOLFORM=C H3 C O C H3
##MP=-95.35 C
##BP=56.2 C
##$NIST SOURCE=QUANT-IR
##SPECTROMETER/DATA SYSTEM=IFS66V (Bruker)
##INSTRUMENT PARAMETERS=KBr Beam splitter; MCT Detector; Multipass cell
##STATE=gas
##SAMPLE DESCRIPTION=Acetone Primary Gas Standard
##PRESSURE=101.3 kPa
##TEMPERATURE=23 C
##SAMPLING PROCEDURE=1 L/min Flow
##RESOLUTION=1.9290
##DATA PROCESSING=Happ Genzel Apodization
##XUNITS=cm-1
##YUNITS=(micromol/mol)-1m-1 (base 10)
##XFACTOR=1.0
##YFACTOR=4.5474E-13
##DELTAX=0.9645
##FIRSTX=574.687
##LASTX=3974.595
##FIRSTY=3.53E-07
##MAXX=3973.63
##MINX=574.69
##MAXY=.0005169
##MINY=-1.33E-07
##NPOINTS=3527
##XYDATA=(X++(Y..Y))
574.69 777408 335494 331916 541594 480174 455256
579.51 401768 122106 263898 368936 362414 742058
585.29 677876 334962 115298-88900 1162 359752
591.08 567844 553758 396128 192572 239528 159010
596.86 87770 154420 189718 207560 171138 206074
602.65 222434 53232 55598 162922 124560-28824
608.44 292 79046 213166 304364 300672 263556
614.22 209710 150472 80848-25474-46414-28332
620.01 51654 134868 103844 5806-40138-50464
625.79-52740-65904-89398-89804-42826 62098
631.58 8904-100606-237848-214572-40240-36404
637.36-156076-119170 26614-82126-214178-173008
643.15-60546-77716-131618-122910-115002-225476
648.93-236520-114090-29936-13490-171808-293968
654.72-253766-147446-129542-129736-112002-109138
660.50-150032-186846-277248-287388-213940-125062
666.29 181236 291544 69470-81848-138804-98026
672.08-51514-67598-151852-134530-118444-96020
677.86-125314-99888-73614-103948-98782-101586
683.65-85976-49912-60682-113020-102302-31094
689.43-6690-48890-37452-16578-34378-9620
695.22-66128-63930 19392-14624-3764 120682
701.00 87086-4902 20606 105154 74220 47064
706.79 60408 93980 166950 213362 211708 212838
712.57 185554 208260 271818 254940 240914 342164
718.36 437796 478158 502200 526284 603288 565154
724.14 654932 832584 833884 818646 910830 999260
729.93 1071740 1131566 1244078 1374152 1487080 1617954
735.71 1702108 1808408 1957390 2108668 2287798 2486944
741.50 2723312 2960808 3142876 3352366 3660486 3994218
747.29 4329476 4666584 5021396 5383478 5820458 6293282
753.07 6757934 7247456 7747934 8199602 8675406 9165208
758.86 9610098 10044550 10565180 11148350 11581360 11842960
764.64 12033350 12320810 12549860 12719080 12994700 13260470
770.43 13378110 13312270 13147730 12948880 12780740 12709300
776.21 13056550 13563490 13670880 13417870 13039260 12697320
782.00 12718550 13240570 13902260 14140190 13916010 13520780
787.78 13100610 12735460 12412260 12011230 11609940 11167610
793.57 10567720 9975582 9426314 8676104 7915278 7186776
799.35 6417482 5630944 4945588 4433398 3943586 3502832
805.14 3122564 2776572 2473244 2316706 2207246 1954710
810.93 1614650 1375888 1202066 1107796 1039682 935226
816.71 923336 941348 860456 765196 816288 862900
822.50 789850 762816 819450 904594 899512 893860
828.28 861982 848676 906404 974904 1105016 1124394
834.07 1100628 1166136 1246644 1338524 1412554 1434934
839.85 1510590 1563434 1616108 1672742 1723590 1822254
845.64 1948938 2088306 2223488 2391630 2584552 2747146
851.42 2913086 3187282 3472358 3743380 4074138 4566266
857.21 5061004 5525028 6075804 6742288 7521336 8348236
862.99 9293502 10379410 11562110 12799220 14123180 15600430
868.78 17177270 18922650 20813200 22776760 24653840 26525260
874.57 28325970 29693790 30212810 29989480 29550940 29848400
880.35 30776890 31817850 32444500 32810080 34394310 39718220
886.14 43492150 42536410 42427010 43298730 42373060 41132260
891.92 42583180 48197430 52547620 51419920 49978600 50228240
897.71 51083570 51432940 51329600 50529370 49742820 49258940
903.49 48941980 48541160 48178400 47539200 46662380 45644950
909.28 44550660 43292920 42020940 40660560 39242400 37650970
915.06 36014550 34455220 33050950 31624580 30303990 29075580
920.85 27973540 26920150 25835540 24717410 23718420 22714660
926.63 21809200 20908530 20060410 19156660 18285700 17412260
932.42 16611900 15874470 15197950 14455380 13738940 13087140
938.21 12492430 11862010 11346010 10941670 10573930 10182170
943.99 9865516 9580362 9368168 9119988 8941206 8817342
949.78 8723158 8578476 8477528 8385492 8322752 8232002
955.56 8213650 8233020 8268130 8207804 8167132 8073566
961.35 8011676 7923054 7815712 7632188 7497416 7509600
967.13 7796154 7915008 7602122 7363910 7290396 7183342
972.92 7127114 7051606 6976390 6898678 6907994 6899138
978.70 6864606 6809312 6763556 6650268 6557050 6428130
984.49 6316814 6231932 6234988 6189698 6099270 5894420
990.27 5708914 5504354 5302294 5100086 4991156 4878930
996.06 4784586 4697776 4739426 4776666 4714088 4476594
1001.85 4258188 4080430 3982070 3903444 3901838 3913722
1007.63 3909560 3855616 3906106 3984256 3988488 3875122
1013.42 3871550 3825566 3770238 3699806 3666100 3744654
1019.20 3786002 3579954 3507332 3490826 3536180 3516278
1024.99 3536238 3535802 3569312 3572940 3634324 3704876
1030.77 3777552 3770990 3854046 3922970 4030262 4156486
1036.56 4292094 4340414 4379170 4439238 4594432 4627152
1042.34 4720432 4787854 4870202 4930480 5012834 5070066
1048.13 5169206 5246712 5325658 5338660 5397352 5448594
1053.91 5549208 5591932 5719512 5849416 6035698 6186386
1059.70 6414092 6611588 6823138 7005956 7288836 7543530
1065.48 7921232 8245142 8609432 8943176 9361420 9731896
1071.27 10147990 10470320 10885840 11246980 11641470 12005470
1077.06 12474870 12818170 13036720 13226670 13587360 13792830
1082.84 14300010 14908690 15874580 17234260 19372760 22225120
1088.63 26935550 37167900 50481140 43902020 34860180 38251460
1094.41 30595580 22074860 20645080 20238050 20021070 20159110
1100.20 20532130 21036670 21555410 22040750 22528620 22931130
1105.98 23202280 23339840 23460440 23516790 23470350 23302390
1111.77 23024500 22631380 22164540 21550200 20844110 20110310
1117.55 19348040 18491160 17664870 16899040 16119430 15268160
1123.34 14451730 13678560 12974570 12268760 11637670 10987690
1129.12 10392310 9861592 9384930 8878628 8460630 8050454
1134.91 7752960 7452358 7167174 6863736 6624322 6400524
1140.70 6218464 6060896 5971418 5824644 5648138 5470886
1146.48 5368318 5258574 5230730 5226760 5243200 5239210
1152.27 5300270 5336746 5455108 5529872 5652098 5834064
1158.05 6120506 6337896 6639006 6952164 7367104 7789352
1163.84 8339594 8930364 9620546 10347200 11217510 12132420
1169.62 13187600 14329940 15668970 17098820 18766430 20538450
1175.41 22592680 24928470 27658520 30750430 34439950 38706700
1181.19 43826920 49829060 57060320 65638230 75903260 87968420
1186.98 102271700 118942100 138449100 160044800 182998400 208052200
1192.76 235125500 263531200 295219900 329510400 364966500 400133100
1198.55 434372700 466305000 494956900 520115300 541955900 559315300
1204.34 570191500 570627400 563947600 554907100 543967000 533843200
1210.12 529531900 532790900 550238800 593062500 664119000 752497800
1215.91 825062500 816213200 716848600 578991000 450631100 425450000
1221.69 462422700 504101000 542232600 575883000 603875500 624799900
1227.48 636299300 635998700 622098800 596919200 563582500 522852300
1233.26 475707000 425066300 373089700 321720400 272915600 228311500
1239.05 188695200 154351400 125133100 101052300 81538480 65926310
1244.83 53486250 43734110 36149760 30301490 25729910 22153600
1250.62 19354160 17162410 15354260 13886690 12665100 11641410
1256.40 10780100 10041570 9409448 8869408 8417490 8035604
1262.19 7736834 7460702 7212708 7009714 6862232 6715712
1267.98 6630530 6528784 6468666 6428274 6369916 6345542
1273.76 6399070 6443832 6500918 6564538 6680842 6766516
1279.55 6888706 6995892 7147468 7292164 7490216 7686728
1285.33 7989800 8282496 8722600 9452782 10016440 9734974
1291.12 9586174 9803466 10112140 10391150 10780960 11179250
1296.90 11657220 12154250 12738520 13317720 13982890 14648740
1302.69 15336970 15977310 16819370 17619570 18430860 19313350
1308.47 20343190 21373960 22631190 23849540 25137060 26656460
1314.26 28424040 30103910 31682270 33257710 35236730 37367930
1320.04 39836280 42538130 45605420 48835820 52446680 56247540
1325.83 60509750 65252810 70742540 76849670 83806690 91356260
1331.61 99908420 109517300 120531400 132819100 146616900 161744900
1337.40 178597000 196993200 217151100 238562600 261703600 286181600
1343.19 311767200 337862400 364449600 390656500 416878700 442289600
1348.97 466258300 488425400 506742600 518650000 526550200 531606200
1354.76 530408100 522536500 513976200 510761100 530406200 575225300
1360.54 595511200 585728300 597814300 680154700 784391000 713290800
1366.33 630430800 638026400 652758700 651418200 642628400 637152500
1372.11 630148000 621662600 611241100 599216100 583868300 566016100
1377.90 545335100 523470100 496012600 461707100 424760200 389231600
1383.68 355326700 323110300 292736100 264898200 238960200 216289300
1389.47 196709100 180179000 166081200 154815800 145756800 137837600
1395.25 130999600 126017900 122412400 119959000 117541300 115845200
1401.04 114912400 114633100 114751500 115025000 115111400 116214600
1406.83 118829800 123091700 126615500 126423300 126153700 129743500
1412.61 135042000 139790700 142801500 145032400 147512700 151028900
1418.40 154958300 157158300 159543300 162660500 164988000 166366200
1424.18 166820700 167092700 167028900 166315500 164984900 163643800
1429.97 163214500 166602900 173671400 181312100 184607700 182464100
1435.75 177638500 173988000 174689900 178126400 179890500 177517500
1441.54 173813000 170656000 168747900 168576600 169100200 170599400
1447.32 171860700 167816400 160431300 152623600 145946200 144188300
1453.11 161912200 174238900 152752100 135303100 127727500 123508000
1458.89 120182000 117686800 115015800 111711100 108214200 105534100
1464.68 101824200 98138630 95018020 92298490 89938990 88356770
1470.47 88141440 88836020 87736810 83272140 78632560 76150740
1476.25 73570270 71017340 67761490 63884520 60179700 57371280
1482.04 55312450 54134810 52218670 49824600 48202780 46980930
1487.82 45760200 45171240 44061380 42653910 41490860 40842330
1493.61 40297400 40914340 40940360 39462240 39082720 38666830
1499.39 37782610 37505780 37191160 36877420 36947580 38362940
1505.18 39413100 39862770 40185280 39654590 37389080 36103290
1510.96 36077890 35948890 35615990 35796400 35834310 36355760
1516.75 36179530 35566230 36114550 38174090 38903140 37583280
1522.53 36564710 36803820 37695670 37445800 36904760 36414180
1528.32 35814400 35464920 35487600 35691270 36290830 36230290
1534.11 35306740 35082810 35098270 36090180 38076330 37990140
1539.89 36519160 36194720 35409330 34287190 34417780 34042340
1545.68 33130920 32928950 33303530 33554210 32742400 31814470
1551.46 31599020 32212050 32814580 31512480 30823980 32198590
1557.25 33856680 33693060 33085100 30731400 29013880 28758290
1563.03 28507050 28160200 27375620 26755070 26438710 26715740
1568.82 26815800 25563170 24477660 23829150 23231060 23037860
1574.60 24560940 24609500 21939920 20782170 20278400 19919430
1580.39 19488330 19136590 18674950 18334740 17937850 17658020
1586.17 17309670 16998630 16610520 16266620 15834970 15406810
1591.96 14967210 14653080 14237690 13819890 13376730 12966860
1597.74 12575040 12247320 11891380 11563250 11207020 10888850
1603.53 10544220 10261290 10019240 9806682 9568982 9399332
1609.32 9103280 8791498 8576526 8404176 8251870 8406708
1615.10 10092380 10603370 8455842 7670232 7590252 7615466
1620.89 7552038 8101290 8332524 7623976 7151904 7217066
1626.67 7475780 7303448 7009410 6989644 6980444 7043518
1632.46 7180790 8331550 10044240 9262138 8029208 7834534
1638.24 7696568 7890386 7994646 8239406 8408600 8704760
1644.03 9813560 11343910 10970960 10697600 10466680 10363110
1649.81 10845860 13503980 16754050 15983980 13565910 12462740
1655.60 12272530 12531780 12711610 12979420 13171250 13635140
1661.38 14438450 14595440 14092060 14400600 15126770 16620810
1667.17 18437180 20144380 20043600 19973790 20361600 20894940
1672.96 22226420 24654610 25673520 25790340 26785400 28120570
1678.74 29581260 30912180 32104000 34095530 36949010 40337620
1684.53 40536590 39970260 41955780 44522730 47393470 50605080
1690.31 54267580 58294780 62721080 67950910 76087430 84762830
1696.10 92116790 103209000 117655000 132833500 144820900 157124000
1701.88 173554900 193468400 215668900 240292700 267545000 296821200
1707.67 328815200 363129000 398979700 435825200 473437700 511093600
1713.45 548186900 583770000 618319000 652283100 681297000 707191400
1719.24 732082300 755825700 778262200 799162000 817959200 834736100
1725.02 850117700 864196500 875591900 877079600 868023700 859516400
1730.81 865015100 896214100 954068900 1022862000 1078789000 1113289000
1736.60 1129538000 1136803000 1135235000 1118755000 1095613000 1076722000
1742.38 1059266000 1041722000 1022818000 999119800 972342300 946623900
1748.17 923112300 903691600 888914000 869285800 841425500 807690900
1753.95 769539900 733128200 700605600 671658400 646860800 624297500
1759.74 603105200 579651600 547625700 513090300 480385800 450020300
1765.52 421851800 395510300 371006100 350320600 332755500 314266300
1771.31 299301300 288789200 269852700 243659800 221003900 207324400
1777.09 199476600 190651200 181234700 173441600 167245300 162365000
1782.88 157995200 153931300 150049600 146199900 140305500 131711400
1788.66 123050800 117054800 113279100 109919500 104755400 98976390
1794.45 93592840 88043510 82632580 77832180 73835590 70172910
1800.24 66656070 63171550 59574700 56180560 53187580 50538580
1806.02 48010110 45434600 42840320 40501980 38185240 35772040
1811.81 33542030 31445070 29501310 27744480 26189990 24771320
1817.59 23385450 22121770 20978490 19922300 18975370 18128100
1823.38 17594030 17117910 16097810 15246170 14744280 14543530
1829.16 14231690 13282040 12480510 12013570 11654220 11426130
1834.95 11173830 10820820 10440200 10087890 9933608 9766786
1840.73 9440554 9264090 9670384 9377262 8030694 7391892
1846.52 7135822 6815258 6400652 6121352 5846156 5642362
1852.30 5414874 5264008 5087656 4940768 4774542 4624158
1858.09 4417336 4274266 4140488 4023184 3884656 3805572
1863.88 3748654 3740406 3722072 3792838 3966914 3917066
1869.66 3466380 3275708 3196292 3169218 3092102 3041308
1875.45 2958364 2902770 2827278 2781786 2697884 2654816
1881.23 2599830 2562030 2500446 2503906 2525606 2632818
1887.02 2557326 2515716 2395108 2123026 2004550 1977972
1892.80 1974080 2023592 1990400 1908230 1857780 1822330
1898.59 1771662 1742480 1676002 1615094 1560312 1508966
1904.37 1432886 1378770 1332892 1300796 1256384 1242858
1910.16 1124238 1060016 991662 950770 892972 883480
1915.94 1039786 1345518 1103120 814920 805268 894598
1921.73 1004346 962898 828250 805252 806406 801296
1927.51 781236 789634 790962 793334 790306 819286
1933.30 825280 829408 830254 860626 866074 865250
1939.09 869416 931820 1100276 1148714 985744 992194
1944.87 1032618 1059208 1054510 1090986 1123514 1164896
1950.66 1202668 1268568 1302744 1350966 1374200 1417344
1956.44 1477532 1544240 1575642 1641636 1697834 1750558
1962.23 1786412 1838456 1881956 2000276 2118378 2166302
1968.01 2159640 2176132 2199566 2246244 2284642 2366656
1973.80 2390786 2400506 2413684 2442132 2471600 2521482
1979.58 2506484 2483680 2454340 2467830 2444862 2473486
1985.37 2488662 2493446 2437194 2317826 2227596 2339148
1991.15 2436742 2346836 2276410 2250304 2091076 1984648
1996.94 1937148 1917812 1849776 1790608 1725460 1678022
2002.73 1606202 1527852 1430734 1329534 1211520 1117168
2008.51 991736 902120 813440 726800 642820 589044
2014.30 519512 514764 501358 452352 407366 392078
2020.08 373078 373022 348110 329012 333544 353828
2025.87 339160 323830 322380 336248 328142 325158
2031.65 319490 324302 330934 366902 356266 351336
2037.44 355950 379434 374064 394878 400568 401790
2043.22 416142 461816 444422 442866 457256 480408
2049.01 481060 495742 526246 561210 564262 598768
2054.79 625138 644830 648782 702476 729058 758962
2060.58 786392 827564 873274 948590 982408 1012578
2066.37 1041712 1103016 1171726 1253990 1323932 1400146
2072.15 1448116 1528898 1625598 1752750 1850590 1976958
2077.94 2122568 2262580 2394858 2575672 2760504 2970696
2083.72 3167534 3384512 3593840 3827670 4064732 4311074
2089.51 4527964 4761780 4993004 5235362 5413796 5598490
2095.29 5781176 5951418 6212080 6538344 6757966 6824728
2101.08 6790626 6895814 7195472 7631060 8069270 8426054
2106.86 8615610 8719284 8831304 9082586 9455632 9846202
2112.65 10170060 10467880 10711110 10983990 11261660 11514860
2118.43 11711310 11925710 12118230 12282590 12425260 12542810
2124.22 12586080 12580720 12548240 12540430 12534960 12520580
2130.01 12499170 12501890 12471740 12504770 12579420 12546740
2135.79 12259160 11972930 11771230 11603910 11512130 11554720
2141.58 11699420 12072290 12387460 12040660 11176580 10602900
2147.36 10343690 10131790 9859604 9567172 9288310 8980452
2153.15 8593656 8235498 7838070 7386190 6916484 6474168
2158.93 6000056 5517792 5031064 4586276 4189124 3815266
2164.72 3478130 3192944 2927282 2715390 2524218 2337494
2170.50 2145818 2019578 1936020 1881218 1805516 1734754
2176.29 1658832 1626468 1582020 1524626 1456958 1411926
2182.07 1331730 1355062 1411762 1389218 1307982 1224664
2187.86 1189276 1261364 1307580 1317672 1289174 1258808
2193.64 1255182 1257212 1247530 1278940 1302640 1319220
2199.43 1311700 1332116 1358872 1380604 1391738 1409178
2205.22 1427618 1492538 1568134 1653444 1759142 1850058
2211.00 1899138 1938078 1975756 1984622 1967780 2006046
2216.79 2064538 2151690 2217822 2285046 2372552 2504208
2222.57 2655498 2823062 2986662 3147020 3226528 3324306
2228.36 3486872 3645288 3742646 3826876 3896240 3950978
2234.14 3996016 4076900 4169686 4265322 4353542 4450616
2239.93 4560232 4677134 4833078 5098688 5377964 5398768
2245.71 5199738 4917430 4665946 4607300 4642590 4731096
2251.50 4834474 4900480 4947972 5013090 5010312 4982190
2257.28 4943604 4900966 4844906 4789564 4679610 4580784
2263.07 4428500 4245682 4099872 4015202 3897336 3770918
2268.86 3647652 3551502 3461874 3383974 3268870 3139376
2274.64 3018678 2922086 2819788 2714036 2591872 2510148
2280.43 2449044 2404316 2313136 2235800 2149544 2100854
2286.21 2073260 2033852 1968930 1917680 1891284 1876802
2292.00 1837676 1790892 1738608 1700982 1660446 1637332
2297.78 1612228 1604868 1596244 1555106 1509332 1487200
2303.57 1485790 1498496 1516134 1522604 1524154 1528152
2309.35 1532508 1583384 1597966 1594670 1575658 1596628
2315.14 1550758 1596118 1633580 1644852 1556908 1577462
2320.92 1576906 1618632 1637736 1698352 1694786 1742842
2326.71 1785832 1794796 1734338 1711146 1692086 1708528
2332.50 1722664 1739208 1695554 1673548 1642420 1638622
2338.28 1628466 1615426 1571522 1517932 1461618 1423396
2344.07 1409256 1407396 1313204 1213868 1132898 1126020
2349.85 1157742 1196576 1206200 1221218 1248914 1285106
2355.64 1282372 1308874 1316452 1289334 1269540 1258214
2361.42 1220086 1206646 1180468 1129982 1052416 1008728
2367.21 975974 924448 850686 794446 726280 688800
2372.99 640234 591438 563534 530770 444622 398470
2378.78 388232 383190 343376 345942 353036 356548
2384.56 332266 318362 312734 315804 333350 356908
2390.35 372884 380766 391736 448726 481266 514080
2396.14 541514 587902 626248 658918 691682 773972
2401.92 857600 939226 995260 1055748 1091666 1156878
2407.71 1216318 1292646 1354108 1433510 1513818 1575142
2413.49 1608588 1660834 1739330 1808400 1861064 1914010
2419.28 1956822 2008288 2028788 2084104 2110396 2120204
2425.06 2125688 2123288 2119284 2150664 2192856 2223514
2430.85 2201246 2162834 2126070 2113550 2100252 2100652
2436.63 2076338 2061370 2076548 2145832 2228672 2394346
2442.42 2435110 2210428 2007176 1932584 1919230 2054658
2448.20 2273526 2161252 1710736 1361182 1158512 1047504
2453.99 989332 944714 904790 842536 757770 736254
2459.77 726292 714276 696608 685328 663584 663328
2465.56 632100 599756 580720 589002 573348 569098
2471.35 577656 610778 604934 610278 614156 618676
2477.13 639856 685164 726940 743232 758874 812880
2482.92 834200 863480 880804 906794 953346 962184
2488.70 953982 980896 989956 1014418 1039674 1072728
2494.49 1090076 1075892 1083416 1144904 1179208 1186582
2500.27 1190376 1228598 1275438 1307870 1324980 1315146
2506.06 1305020 1341282 1361978 1386040 1369604 1349648
2511.84 1331782 1319970 1302134 1311394 1340126 1336950
2517.63 1326720 1323616 1315982 1306558 1307376 1371764
2523.41 1458884 1492084 1467840 1460090 1491844 1538284
2529.20 1583018 1642554 1669720 1718070 1760484 1795042
2534.99 1852264 1946188 2011776 2089304 2147536 2203110
2540.77 2278024 2383000 2520180 2613030 2698542 2839140
2546.56 3015296 3198150 3342902 3488594 3682072 3883492
2552.34 4082300 4275898 4442624 4636838 4820008 5002118
2558.13 5182850 5340344 5444808 5548014 5615670 5667986
2563.91 5680828 5683974 5705740 5769826 5869338 6007206
2569.70 6092396 6130340 6319062 6757872 7288152 7072052
2575.48 6073418 5579704 5550048 5530532 5533702 5676192
2581.27 5849568 5964204 5960592 5912482 5821332 5669114
2587.05 5475680 5266656 4989448 4689246 4370154 4045374
2592.84 3688626 3357462 3033660 2729990 2434462 2203062
2598.63 2000486 1805028 1632732 1502134 1398592 1317360
2604.41 1248192 1180742 1098990 1044270 1026186 1026706
2610.20 1014046 1010074 1007378 1015658 977404 953354
2615.98 938764 954466 951576 975948 1011992 1013464
2621.77 1008478 1016606 1016792 1041648 1083106 1143204
2627.55 1158054 1162230 1171518 1144938 1146490 1189752
2633.34 1200572 1233244 1241844 1227326 1245018 1286394
2639.12 1291740 1281788 1283224 1297908 1315498 1309462
2644.91 1282820 1296460 1273902 1243900 1226638 1233734
2650.69 1214428 1195612 1203538 1199728 1189998 1199206
2656.48 1195178 1159424 1135528 1109790 1120982 1109806
2662.27 1047216 1024092 980940 949950 899034 871822
2668.05 862358 844862 797972 753036 727142 706622
2673.84 685692 668256 646536 649982 674394 674664
2679.62 682810 701792 697812 721088 723828 721140
2685.41 715308 755710 792566 791924 807438 815240
2691.19 796276 792416 804118 809880 813506 822304
2696.98 863884 916180 865736 838470 868896 904604
2702.76 963294 1038806 1128910 1173972 1152550 1139650
2708.55 1152170 1214108 1249526 1240658 1245798 1269446
2714.33 1276136 1235286 1183978 1187132 1182400 1126964
2720.12 1061612 1037474 1040352 1025474 999846 989868
2725.91 986848 990972 969088 913944 860062 902724
2731.69 965440 974628 967214 998022 1024666 1015518
2737.48 964600 962904 1017086 1071132 1061908 1053582
2743.26 1087958 1112094 1113354 1131880 1168702 1222816
2749.05 1263598 1300974 1337348 1382330 1446588 1520268
2754.83 1544866 1595538 1675960 1760988 1858206 1975038
2760.62 2071426 2186206 2277374 2390250 2500698 2584914
2766.40 2723092 2873906 2994680 3149858 3350924 3538762
2772.19 3713814 3898992 4034140 4161376 4364850 4611558
2777.97 4737348 4745396 4790666 4920232 5018270 5084100
2783.76 5183456 5325830 5455442 5557810 5692152 5825104
2789.54 5883846 5944762 6003096 6110538 6233026 6388960
2795.33 6551626 6710244 6765228 6668184 6582784 6599000
2801.12 6663680 6693236 6701194 6694324 6754038 6788604
2806.90 6722260 6698084 6709668 6699738 6695756 6734894
2812.69 6782666 6864796 6898794 6920472 6965104 7026896
2818.47 7108018 7297876 7511318 7657538 7817752 8083058
2824.26 8359724 8652930 8957586 9286004 9634510 10026120
2830.04 10493000 11016200 11534120 12034060 12490120 12980570
2835.83 13516720 13993870 14422920 14868670 15319060 15721060
2841.61 16046680 16389320 16699010 16982000 17282570 17551230
2847.40 17800760 18076870 18371440 18655970 18927490 19188730
2853.18 19403870 19551810 19767120 19988980 20112000 20193710
2858.97 20272060 20422310 20685310 21048160 21404270 21513030
2864.76 21368300 21181690 21073060 21016100 20850640 20591860
2870.54 20375630 20191370 19960790 19752000 19570260 19375080
2876.33 19247910 19126340 18995960 18878390 18786130 18718360
2882.11 18683440 18699090 18760290 18864430 18994590 19181300
2887.90 19382850 19653180 20084500 20708860 21311610 21690700
2893.68 22043460 22546880 23294920 24182590 25146960 26129060
2899.47 27196660 28401400 29709680 31134100 32751770 34547540
2905.25 36461090 38475330 40554960 42777740 45409030 48189320
2911.04 50854500 53562180 56337620 59090260 61924420 64787310
2916.82 67486460 69860740 71885860 73568980 75111600 76596420
2922.61 78027760 79334470 80345050 81077300 81859750 83004290
2928.40 84040720 83880180 83262360 82831500 82763520 83740800
2934.18 86177680 89562750 93053560 95976170 98367620 100567000
2939.97 103063200 105248300 106232300 106852200 107627100 108304400
2945.75 108736900 108651300 108091300 107084000 105770300 104188100
2951.54 102547200 100878800 98996790 97020160 95367600 93885740
2957.32 91976320 89516750 87243050 85896020 85621740 86307860
2963.11 88756850 93798320 102922200 117088800 142160800 198590500
2968.89 257728700 241546400 187069000 146005400 118922500 102955600
2974.68 93709090 88652660 85453070 83620010 83207040 83930580
2980.46 85061350 87002700 89425770 91923620 94114180 96318300
2986.25 98235500 99975800 101584000 103230300 104762800 106383900
2992.04 108088200 110016100 112110800 114242300 116214600 118324800
2997.82 120398500 122388900 124115700 125574300 126663200 127503500
3003.61 127914900 127836400 127475400 126988300 126054400 125032700
3009.39 123949300 123518300 124114300 126127900 129724100 134049700
3015.18 138417300 139062900 129481300 121316300 120487000 121905800
3020.96 123436900 124444600 125291500 125941200 126318600 126432800
3026.75 126003600 124729900 122549900 119492500 115661800 111084100
3032.53 105975500 100722600 95557110 90514560 85566800 80717420
3038.32 76093790 71725920 67588040 63983670 61259420 59177060
3044.10 57407880 55804150 54295140 52913840 51760420 50758210
3049.89 49911880 49268830 48812710 48559250 48354590 48053750
3055.67 47667560 47239660 46826710 46437640 46049160 45729380
3061.46 45526580 45385260 45325220 45208700 44927550 44678100
3067.25 44527470 44434470 44241900 43984170 43716620 43452440
3073.03 43064320 42548580 41985800 41464320 40977510 40609320
3078.82 40173660 39703140 39217750 38750230 38158840 37461900
3084.60 36791310 36200600 35653440 35128000 34529460 33861340
3090.39 33025790 31983630 30900730 29885980 28940470 27991480
3096.17 27122650 26412810 25801670 25171490 24498720 23759310
3101.96 22996340 22224120 21393640 20616070 19833190 19058430
3107.74 18353460 17643540 16868450 16160870 15529930 14838330
3113.53 14101980 13470840 12863050 12319950 11772100 11186840
3119.31 10723020 10358380 9927722 9493972 9077212 8725648
3125.10 8385148 8084336 7789674 7463456 7200458 7009936
3130.89 6794440 6542332 6299806 6147594 5969428 5863902
3136.67 5769394 5575268 5476230 5450204 5243942 5068074
3142.46 4969028 4890202 4801064 4725658 4701232 4682790
3148.24 4669870 4664942 4555172 4475592 4500818 4387860
3154.03 4239428 4191926 4199440 4192258 4103276 4052954
3159.81 3983780 3918842 3942280 3929994 3882760 3864154
3165.60 3791118 3754750 3750008 3732444 3690466 3639620
3171.38 3570548 3487610 3430702 3450598 3463458 3452110
3177.17 3406122 3327334 3206908 3142342 3128604 3111840
3182.95 3074898 3005118 2923886 2851296 2782648 2763314
3188.74 2699834 2638362 2613406 2529126 2492434 2476934
3194.53 2429998 2377966 2323628 2313138 2257514 2193508
3200.31 2142844 2109182 2050904 1993558 1965436 1943948
3206.10 1921334 1896918 1840366 1838532 1823984 1783618
3211.88 1749856 1703146 1682200 1673824 1643208 1590292
3217.67 1573016 1595952 1578322 1543904 1530288 1464818
3223.45 1493314 1524364 1454852 1375366 1374764 1409962
3229.24 1435522 1429180 1410314 1320024 1277694 1312288
3235.02 1324962 1333432 1345688 1341690 1276780 1270096
3240.81 1242406 1211936 1238620 1270188 1206032 1164788
3246.59 1159400 1151488 1122220 1171964 1178246 1160088
3252.38 1217024 1218258 1129082 1116074 1131266 1115540
3258.17 1082474 1055112 1074802 1082774 1039568 1018434
3263.95 1032888 1001826 992518 964774 953968 936594
3269.74 905062 959018 1037060 991654 957478 971066
3275.52 1005234 1006592 982440 940198 988934 1032148
3281.31 1014848 1005930 991738 962644 998372 1037048
3287.09 1098058 1087178 1008164 1047356 1115522 1057822
3292.88 989298 1007604 990710 986100 1000824 1033210
3298.66 1078616 1109714 1039082 954968 925660 948288
3304.45 989154 994662 1011756 1052850 1105276 1097720
3310.23 1043644 980084 903392 930000 967662 974468
3316.02 985414 997352 954570 918818 874744 868448
3321.80 869208 852034 851604 868924 865006 885908
3327.59 818452 730732 690288 723250 740586 687502
3333.38 684524 688774 663190 614332 587256 641756
3339.16 671744 630498 580212 583556 606122 565582
3344.95 525876 587256 649876 655132 579360 509334
3350.73 552568 598592 640170 635254 593312 607604
3356.52 616456 660088 666022 603710 601396 657750
3362.30 693854 758736 750034 696386 709242 732898
3368.09 710140 810210 888136 922472 957816 1010588
3373.87 1052918 1085000 1087116 1151910 1250674 1225562
3379.66 1216856 1296332 1348188 1409320 1410256 1340868
3385.44 1387046 1422554 1391732 1365048 1388428 1442822
3391.23 1530576 1527088 1429430 1374248 1405250 1487802
3397.02 1539346 1497822 1424920 1481166 1562842 1582230
3402.80 1572802 1583210 1591060 1642000 1712324 1742944
3408.59 1823988 1964002 2021698 2115100 2294272 2476608
3414.37 2659376 2854326 3077718 3330456 3630582 4021322
3420.16 4385612 4784224 5254282 5763416 6259666 6827110
3425.94 7487174 8155400 8869862 9621590 10383010 11119900
3431.73 11887110 12769590 13576700 14302740 14992760 15699280
3437.51 16387140 17029420 17598600 18148630 18768660 19353540
3443.30 19818730 20302210 20840470 21382130 21657640 21664070
3449.08 21552610 21878210 22764170 24018750 25191250 25788030
3454.87 25784140 25592380 25332360 25090900 24968720 24915230
3460.66 24861710 24853050 24755540 24538870 24232720 23877460
3466.44 23411100 22851980 22286040 21672390 21047920 20390250
3472.23 19626440 18886390 18150070 17320480 16530580 15723950
3478.01 14919720 14207900 13519630 12804040 12112630 11433950
3483.80 10721150 10046890 9431592 8831656 8361200 8066048
3489.58 7850252 7553126 7193660 6917256 6774128 6580398
3495.37 6258634 5895878 5552596 5328736 5153140 4943356
3501.15 4754500 4577316 4296582 3968632 3707400 3493174
3506.94 3276224 3112502 2873268 2667930 2546452 2371166
3512.72 2188296 2018528 1870474 1701864 1607568 1548594
3518.51 1484708 1345026 1257288 1210018 1203584 1134716
3524.30 1062920 1023034 981218 916556 841816 767100
3530.08 700450 588364 521002 454620 441248 493882
3535.87 480780 394140 341402 279434 193586 175714
3541.65 300020 327592 325106 276198 316602 338628
3547.44 183482 116892 161234 259014 372154 309224
3553.22 163474 109826 154282 199570 210930 185420
3559.01 197890 176472 165148 180522 224036 297284
3564.79 560156 685670 689640 490478 118278 83860
3570.58 23038-67114-114344-91236-102048-59538
3576.36-94960-149982-47470-3044-120438-138652
3582.15-150240-131378-16108 389430 504238 540034
3587.94 631070 74430-139218-59804 142108 89790
3593.72 106942 213118 70752-6082 67608 84562
3599.51 151934 132868 39626-11162-25708 22116
3605.29 230974 315316 500420 1058574 583030 82678
3611.08 556974 678886 409900 357974 158878 262950
3616.86 528838 796306 1080260 558096 208038 117238
3622.65 122864 54878 146884 249208 884896 1964442
3628.43 2295840 1242872 253182 129600 344306 386866
3634.22 159860 105148 166426 240094 206428 134654
3640.00 133958 177894 219970 162730 233344 487906
3645.79 1089406 1274160 1864708 2184400 1540406 1104342
3651.57 407570 216320 272646 991308 1493210 704144
3657.36 189026 217340 206326 243170 224494 229040
3663.15 232208 238838 293720 369904 773970 1193696
3668.93 1889538 2604926 1183764 408232 858208 2214200
3674.72 3134706 2039144 653720 657058 768270 619666
3680.50 377576 369708 370462 457112 382466 409202
3686.29 1249970 3025896 2184752 1006602 1364270 998242
3692.07 542088 500808 518292 529910 505646 490340
3697.86 495342 505034 789198 1226286 890214 529928
3703.64 493604 547508 537710 549718 951774 1389562
3709.43 1084676 1787132 2488442 1324100 668658 655932
3715.21 615428 635344 745696 854222 688490 731418
3721.00 1041814 979040 805498 933768 1097058 1210216
3726.79 856116 726110 721088 1015852 1946296 2110464
3732.57 1346838 1799368 2082358 2434284 1888876 1228954
3738.36 982094 983880 1072636 993366 1958690 4899666
3744.14 4637072 1721836 1022000 1547482 3439440 3297070
3749.93 2096444 3746806 3313756 1343118 978856 1203240
3755.71 1342412 1075670 1190166 1628946 1382504 983892
3761.50 971960 956972 1090306 1485498 1396906 1025472
3767.28 1088702 1652834 1963306 1350424 1093472 1029962
3773.07 1048440 997658 1015016 1084852 1271000 1633674
3778.85 1723262 1339760 1281674 1255202 1352090 1498590
3784.64 1438676 1305124 1320984 1301390 1363956 1384494
3790.43 1405282 1353694 1369036 1396844 1680138 2068316
3796.21 1978186 1654926 1680352 2304676 4165342 3913496
3802.00 2316514 1899506 1795088 2402450 3517856 2843840
3807.78 1737842 1684312 1564018 1622098 1656246 1685600
3813.57 1940958 3714190 4068376 2221188 1714750 1969868
3819.35 2828828 3475024 2819250 1845588 1656676 1614634
3825.14 1812288 1903076 1661348 1502054 1527350 1960010
3830.92 2230640 1684206 1709654 2208528 1904120 2294048
3836.71 4094786 3124648 1723980 1881190 1692890 1410326
3842.49 1665574 1493248 1078784 998548 998644 1063978
3848.28 1117072 1146660 2185792 3409668 3801578 5574850
3854.07 3655966 1258220 1164552 1082416 868174 861240
3859.85 1142768 1390786 1114864 1181678 1923698 1768550
3865.64 937998 807954 1339872 2506350 2357072 1113790
3871.42 799088 1087534 1365852 987736 705936 673248
3877.21 686402 980430 1483300 1267662 844002 861724
3882.99 917624 1687214 2276172 1277452 720138 717804
3888.78 873050 1581164 1862610 1128430 929694 881384
3894.56 839854 842382 982080 1415288 1867282 1443814
3900.35 1749132 1867292 1724220 2143798 1715092 1346862
3906.13 1180488 1096012 1097190 1104476 1148270 1187434
3911.92 1223966 1276532 1306962 1406556 1775674 1753326
3917.70 1479764 1648446 1601068 1380552 1412256 1510664
3923.49 1665526 1654158 1396016 1359850 1488964 1548484
3929.28 1510974 1563454 1762544 1668808 1540850 1580906
3935.06 1518716 1418652 1454424 1499826 1495784 1489508
3940.85 1564748 1680946 1581524 1516624 1514432 1542184
3946.63 1581030 1537734 1596474 1592178 1482498 1451686
3952.42 1434052 1496794 1524012 1488348 1524932 1575064
3958.20 1594334 1622826 1669160 1713822 1663628 1673772
3963.99 1751772 1786726 1801414 1865220 1952336 2004110
3969.77 2021692 2138100 2223826 2244428 2350814
##END=
