##TITLE=Acetone
##JCAMP-DX=4.24
##DATA TYPE=INFRARED SPECTRUM
##CLASS=IUPAC A
##ORIGIN=NIST, Anayltical Chemistry Division, 301-975-3108
##OWNER=COPYRIGHT (C) 1998 by the U.S. Secretary of Commerce
##DATE=98/10/1
##$SPECTRA VERSION=1.00
##$UNCERTAINTY IN Y=2.3 % relative (B=1.3E-04,C=1.7E-09,D=2.7E-14)
##CAS NAME=2-Propanone
##CAS REGISTRY NO=67-64-1
##MOLFORM=C H3 C O C H3
##MP=-95.35 C
##BP=56.2 C
##$NIST SOURCE=QUANT-IR
##SPECTROMETER/DATA SYSTEM=IFS66V (Bruker)
##INSTRUMENT PARAMETERS=KBr Beam splitter; MCT Detector; Multipass cell
##STATE=gas
##SAMPLE DESCRIPTION=Acetone Primary Gas Standard
##PRESSURE=101.3 kPa
##TEMPERATURE=23 C
##SAMPLING PROCEDURE=1 L/min Flow
##RESOLUTION=1.9290
##DATA PROCESSING=Boxcar Apodization
##XUNITS=cm-1
##YUNITS=(micromol/mol)-1m-1 (base 10)
##XFACTOR=1.0
##YFACTOR=4.5474E-13
##DELTAX=0.9645
##FIRSTX=574.687
##LASTX=3974.595
##FIRSTY=3.26E-07
##MAXX=3973.63
##MINX=574.69
##MAXY=.0005185
##MINY=-1.98E-07
##NPOINTS=3527
##XYDATA=(X++(Y..Y))
574.69 718058 230600 197766 746364 407448 383742
579.51 669994-206302 340792 554616-36336 1100986
585.29 682640 243656 200416-211740-91484 430324
591.08 646268 522310 534658-53412 424670 100310
596.86 30372 209204 150592 261558 138482 156940
602.65 388360-99376 74326 166854 242348-192674
608.44 82460 1458 256740 323166 308100 260844
614.22 225344 122082 141872-102830-12260-69718
620.01 52202 171746 131454-28508-39742-52694
625.79-55982-45214-124118-52534-142490 199520
631.58-54086-34676-301026-293548 56230-12114
637.36-185732-230820 208002-139346-238688-231804
643.15 29914-100448-132282-161240-24068-281024
648.93-297226-50314-79822 106882-228136-319018
654.72-301336-77470-156894-117764-130524-63004
660.50-195442-131060-308462-350576-118820-299336
666.29 275484 441816-43156-39980-218274-52126
672.08-84922 27082-271286-52004-190412-16894
677.86-186322-91330-33432-149690-67696-120438
683.65-91472-38686-34556-143656-119978-19686
689.43 31166-82060-51526 40000-113706 76410
695.22-106348-114782 97184-28008-95198 233904
701.00 72278-25164-34790 195688 33776 47162
706.79 60116 74334 173700 243814 181942 249086
712.57 159122 183720 314680 259866 183708 355490
718.36 469512 446066 561716 419408 740328 467290
724.14 618412 927816 824472 761920 945230 979442
729.93 1099554 1099118 1239320 1400146 1448308 1664514
735.71 1678926 1793812 1971962 2086958 2296054 2469364
741.50 2718868 2987632 3140132 3304520 3676282 3979580
747.29 4346324 4640044 5048798 5338784 5822486 6297398
753.07 6754472 7226552 7789234 8172912 8672266 9185232
758.86 9611412 10031900 10507230 11233740 11590170 11908410
764.64 11942970 12369260 12585560 12647140 13020520 13281970
770.43 13450250 13305850 13189280 12892650 12839740 12531110
776.21 12994790 13726120 13752560 13424980 13066590 12589760
782.00 12579130 13172740 14060330 14262830 13933780 13527700
787.78 13091630 12694500 12474930 11983750 11611660 11232130
793.57 10572960 9891080 9575454 8613426 7923062 7198958
799.35 6422054 5625334 4852930 4482124 3900128 3506488
805.14 3097004 2798306 2405410 2306520 2251778 2004026
810.93 1542532 1393612 1167870 1090340 1088472 875136
816.71 922240 974100 884012 691824 817644 937588
822.50 733818 772896 768276 985456 852156 924106
828.28 864962 792898 962590 888758 1188298 1126878
834.07 1054692 1181600 1241488 1323720 1470118 1367018
839.85 1558282 1542836 1616670 1688072 1693034 1830434
845.64 1932376 2106102 2202700 2389404 2585754 2776900
851.42 2839090 3221992 3454452 3764524 3982946 4596612
857.21 5078754 5483960 6067160 6687826 7544542 8300682
862.99 9262936 10357670 11546630 12802700 14043690 15629200
868.78 17089990 18929080 20740290 22867520 24601360 26562680
874.57 28361830 30005570 30298010 30221220 29139990 29839910
880.35 30576630 32181350 32210580 33253710 32374030 40250660
886.14 45819670 41300780 42137370 44229290 42287980 40715440
891.92 40949450 48264370 55289230 50431430 49858010 49807180
897.71 51581300 51198140 51832680 50286780 49792330 49083260
903.49 49135640 48348640 48396060 47500090 46773650 45564970
909.28 44702970 43180830 42144480 40572680 39381770 37586830
915.06 36069900 34313070 33172360 31505450 30354890 28983740
920.85 28010670 26876690 25931090 24571340 23844670 22570790
926.63 21920480 20787860 20178270 19057860 18365700 17326810
932.42 16658290 15788700 15290850 14390350 13771720 13011030
938.21 12580200 11768940 11361090 10887880 10647810 10087510
943.99 9937498 9475500 9467996 9027814 8987136 8747384
949.78 8810848 8494242 8542734 8308608 8407718 8138560
955.56 8274398 8146934 8392594 8098794 8277468 7977920
961.35 8092928 7855772 7910240 7555006 7534296 7353738
967.13 7848718 8115872 7512446 7297692 7369938 7097428
972.92 7197288 6993002 7042722 6804944 6973432 6858294
978.70 6920188 6741170 6857496 6566662 6638200 6358014
984.49 6381726 6124090 6333866 6115078 6219718 5802308
990.27 5784136 5439936 5374938 4995076 5070352 4802370
996.06 4866222 4576238 4813024 4730814 4847342 4386314
1001.85 4316584 3993752 4046600 3819760 3955624 3858364
1007.63 4001040 3747216 3963218 3931678 4128026 3719584
1013.42 3985282 3758032 3823494 3658136 3673394 3657028
1019.20 4020456 3367710 3634882 3349218 3677318 3393684
1024.99 3641404 3433304 3669452 3471566 3713058 3613296
1030.77 3910468 3631546 3957012 3836202 4091472 4081436
1036.56 4396684 4258610 4475096 4275814 4784850 4468572
1042.34 4839620 4694072 4955004 4848386 5097588 4979448
1048.13 5254066 5160876 5439720 5224186 5504810 5319684
1053.91 5693290 5442406 5839608 5716284 6169990 6041636
1059.70 6540664 6491094 6963776 6826900 7466102 7336986
1065.48 8103080 8080992 8770374 8762188 9538452 9547416
1071.27 10355970 10263090 11068390 11082440 11809630 11807980
1077.06 12662310 12704210 13240060 12894560 13988500 13343790
1082.84 14645330 14450170 16242380 16440440 20079110 20656250
1088.63 28033300 30652310 61511730 44562840 24750210 48756540
1094.41 27232000 20286290 21092480 19959580 20033600 20053300
1100.20 20531590 21012250 21598750 21997430 22583890 22930810
1105.98 23279110 23294420 23506580 23518740 23522430 23300400
1111.77 23087000 22602730 22242650 21544020 20872210 20078600
1117.55 19422450 18443790 17670430 16872960 16188530 15204620
1123.34 14496100 13595260 13055460 12165070 11724070 10908590
1129.12 10435920 9774232 9491182 8747606 8571908 7913902
1134.91 7847746 7370760 7247440 6776226 6684304 6332400
1140.70 6275764 5970772 6056398 5773702 5711808 5373954
1146.48 5456226 5157486 5296882 5149550 5336860 5118224
1152.27 5423972 5193562 5583750 5416374 5740930 5680458
1158.05 6285748 6174838 6770662 6795854 7498532 7631564
1163.84 8448490 8793432 9731870 10187800 11334580 11973940
1169.62 13300180 14138480 15806630 16878120 18906210 20328460
1175.41 22660860 24697750 27734620 30441660 34486980 38328440
1181.19 43809410 49366300 56928940 65061060 75694840 87232100
1186.98 101960800 118037100 138036300 159825200 182566400 207180300
1192.76 235573700 262025300 295004800 328917900 365400600 400003000
1198.55 435170500 466881700 496094600 520377400 543524700 559872600
1204.34 573805400 572074900 564070500 555533600 544281200 531667100
1210.12 528484500 529841500 543981700 585241900 660401400 751681000
1215.91 846510000 848386000 710826700 599384600 399578000 421060800
1221.69 461567500 505783200 542709700 577569900 605119700 627277700
1227.48 638696300 639725600 624601700 598630500 565242800 524660500
1233.26 476243400 425504300 372869700 321191500 271808200 227226800
1239.05 187348400 153308400 123790000 100093600 80552830 65284340
1244.83 52798460 43293700 35697790 30060850 25466920 22012860
1250.62 19168800 17128140 15236000 13856430 12608010 11607030
1256.40 10755040 10011670 9397916 8834144 8423206 7987488
1262.19 7760316 7431370 7229560 6954706 6918268 6638954
1267.98 6692328 6477850 6484136 6423372 6383858 6283918
1273.76 6451072 6392840 6555618 6481312 6767728 6677562
1279.55 6972948 6903206 7235186 7186976 7594678 7549614
1285.33 8098838 8175460 8715998 9285140 10580890 9430182
1291.12 9600514 9708680 10227670 10245930 10893600 11053080
1296.90 11759420 12022810 12855900 13180220 14100510 14511010
1302.69 15518450 15739300 16991760 17497060 18533360 19125390
1308.47 20532080 21120080 22808470 23728470 25173210 26461270
1314.26 28595350 29986930 31885560 32903080 35457650 37054680
1320.04 40009390 42213760 45824030 48486810 52662300 55903220
1325.83 60636540 64820320 70878630 76347120 83993820 90829470
1331.61 99948420 108894000 120541200 132146200 146667800 160969000
1337.40 178633500 196140000 217345000 237709900 261770800 285540800
1343.19 312088700 337243800 365080700 390182900 417338400 442502000
1348.97 466745600 488877700 509050000 519222000 526915200 533026500
1354.76 532982100 521781600 513853200 506457800 517713600 583983400
1360.54 612296900 567858700 600872800 620629600 898414600 682034000
1366.33 601153700 647167100 653563900 656471100 637478600 640806700
1372.11 628296800 623810900 610013800 601536100 583003500 568219700
1377.90 543885200 525835200 497535100 462637500 423709100 389338100
1383.68 354506900 323229900 291435600 265278600 237473600 216112700
1389.47 195517700 180086700 165055900 154469000 145385200 137912100
1395.25 130116100 126149200 121613000 120541300 116945600 115931700
1401.04 114542700 114756100 114436500 115482200 114546100 116060100
1406.83 118243700 122967700 128229100 126496900 124445600 129797800
1412.61 134914600 140583900 142815300 144986700 147356400 150403400
1418.40 156161600 156704300 159214800 163149300 164965600 166879300
1424.18 166569000 167349500 167016600 166737000 164630300 164060700
1429.97 161684300 165940200 173068500 182810000 186059500 183016700
1435.75 177578700 172400000 174103800 178347700 181632500 177367200
1441.54 173753300 170398100 168160600 168468600 169244700 169394200
1447.32 174767500 167542200 161505400 150813300 147967600 136360800
1453.11 158680000 195009300 141316700 137188900 124887500 124895500
1458.89 118889600 118485400 114619600 112470900 107029200 106724000
1464.68 101261900 98237120 94785460 92341780 89710470 88069620
1470.47 87673320 89305930 88901860 83448300 77231260 77087760
1476.25 72883020 71657020 67658570 64106260 59592900 57622880
1482.04 54562310 54753010 52264290 49577860 47960850 47392440
1487.82 45040440 45808060 43815540 42888560 40944540 41368410
1493.61 39512100 41059450 41977910 38399460 39427320 38961580
1499.39 37218330 37920790 36824500 37317420 35903270 39015390
1505.18 39299630 40075720 39928800 40893520 36488470 35986880
1510.96 35989800 36374550 34914380 36495150 35047380 37010360
1516.75 36136170 35449950 35267680 38755890 39722470 37137940
1522.53 36483600 36180780 38578380 37150140 37003390 36429160
1528.32 35789990 35256630 35626030 35395460 36447020 36821620
1534.11 34633300 35363800 34876440 35350520 39030420 38575120
1539.89 35584410 36645090 35753800 33369490 34962680 34194140
1545.68 32767670 32915580 33121400 34116620 32674240 31527260
1551.46 31625110 31609880 34204620 30774630 30542680 31529890
1557.25 35415420 32545030 34650510 29971190 28586800 29053450
1563.03 28240830 28582080 27094820 26824610 26253020 26486240
1568.82 27714150 25048430 24613700 23589330 23604430 22001280
1574.60 24890900 26350450 20264410 21440420 19763400 20318530
1580.39 19143830 19462280 18369090 18601550 17677600 17881620
1586.17 17116480 17188680 16437150 16437050 15698280 15551980
1591.96 14776480 14827630 14122260 13917220 13290320 13037940
1597.74 12477470 12339890 11801100 11653630 11114440 10976500
1603.53 10458660 10311630 9946398 9896888 9456408 9503852
1609.32 9098284 8714366 8664754 8232738 8543774 7589630
1615.10 10176850 12397990 6840886 8283366 7068358 8115374
1620.89 6995664 8287404 8772486 7350694 7113360 7043076
1626.67 7726902 7322320 6835944 7101404 6882470 7088174
1632.46 7100336 7461178 11594410 9008916 7520958 8235850
1638.24 7211340 8289918 7636828 8534612 8152894 8879482
1644.03 8848748 12999740 9974026 11269280 10086700 10551040
1649.81 10200830 12646290 18809190 16064730 12970320 12457270
1655.60 11967900 12798880 12472180 13183240 13010920 13533500
1661.38 14496600 15207710 13265120 14906680 14354730 17148980
1667.17 17653990 21553560 19345430 20163320 20159690 21031210
1672.96 21312070 25555920 25893320 25278070 26883090 28064730
1678.74 29488400 31314570 31396710 34544400 35746520 42160510
1684.53 40673720 38592580 42482570 44089320 47574590 50274860
1690.31 54406390 57936300 63019950 66808240 75549130 86623260
1696.10 89633960 103405900 116324700 135009500 144263100 155934300
1701.88 172761800 193027100 215205200 239393500 267479700 295849500
1707.67 328431700 362677400 398881700 435511900 473501600 511215900
1713.45 548401700 584658000 617067100 654903900 681382700 707490600
1719.24 732302500 756160600 778567900 799650800 818615700 834735900
1725.02 850857000 863774000 878522800 880568600 867492600 856718700
1730.81 858070700 889521500 949981600 1028162000 1083375000 1118711000
1736.60 1130549000 1138006000 1140251000 1120756000 1092588000 1077533000
1742.38 1058966000 1041702000 1024529000 999942100 971792400 946026900
1748.17 922849500 900811700 891256100 871550100 842030800 809889200
1753.95 768221400 732269900 700039600 670263400 646534000 624221600
1759.74 602238500 584012100 546887600 512963500 479590300 449666000
1765.52 421278000 395377700 370052700 348860800 333996100 313754800
1771.31 295730600 293182600 271593000 242461500 218524200 205334800
1777.09 200768800 190602300 180648000 173236400 166714000 162494500
1782.88 157713600 154153100 149631100 146923300 141080300 131879200
1788.66 121951100 116789300 112778300 110937900 104683500 98740890
1794.45 93819060 87916780 82563820 77508940 73855030 70116890
1800.24 66621570 63275810 59478180 56098920 53073500 50542520
1806.02 47994450 45514260 42688800 40520060 38272960 35645660
1811.81 33566120 31382170 29470820 27691600 26141580 24801400
1817.59 23330860 22096920 20970680 19878300 18976610 18069540
1823.38 17416290 17533420 15849660 15241430 14653730 14458480
1829.16 14631860 13070830 12425240 12019180 11588820 11441910
1834.95 11226620 10782520 10504420 9947966 9997992 9768968
1840.73 9530496 8902196 9842410 10037040 7372060 7561742
1846.52 7015238 6991376 6204172 6268566 5694898 5776818
1852.30 5275974 5377160 4987914 5030976 4683054 4731666
1858.09 4314310 4343492 4072632 4095878 3804046 3861598
1863.88 3676312 3804576 3654712 3796800 3921708 4242558
1869.66 3152656 3422504 3056098 3297330 2983292 3140870
1875.45 2866920 2989312 2736614 2876884 2604978 2735752
1881.23 2515728 2660220 2379128 2623858 2348686 2840326
1887.02 2432582 2565508 2482624 2020428 2002908 1992502
1892.80 1919122 2083950 1987174 1904382 1838268 1856722
1898.59 1726110 1792932 1641086 1640578 1529616 1551702
1904.37 1388564 1417530 1278498 1375228 1149348 1387392
1910.16 998994 1153434 902976 1036912 797488 971922
1915.94 763026 1753670 975298 750940 803878 862842
1921.73 1059444 1017242 739496 846430 774882 839966
1927.51 737442 824732 759896 829704 741872 863966
1933.30 792410 863318 787256 897560 847782 877284
1939.09 854622 896082 1092432 1322786 798676 1085358
1944.87 968246 1130142 984590 1142092 1078084 1210982
1950.66 1144134 1330990 1247288 1403944 1330984 1445334
1956.44 1438364 1601160 1517250 1686424 1661476 1794110
1962.23 1737982 1891764 1814494 2029624 2117550 2209066
1968.01 2115234 2213864 2148954 2303410 2210092 2439894
1973.80 2352266 2431592 2376184 2483314 2411950 2599130
1979.58 2449764 2546244 2371552 2555686 2359030 2534396
1985.37 2445756 2543084 2425268 2359148 2113932 2361360
1991.15 2512514 2335258 2208184 2376814 1997126 2024640
1996.94 1878812 1985826 1798054 1834454 1680814 1720682
2002.73 1575652 1563032 1397938 1374992 1155022 1179930
2008.51 932814 941084 780472 762756 589194 648062
2014.30 451132 550574 494800 467446 374670 423612
2020.08 335878 409382 325292 340100 306844 389310
2025.87 317988 338434 295582 368884 300730 351386
2031.65 288368 360242 276344 429048 312396 385892
2037.44 309614 434170 321484 436696 370664 434248
2043.22 357150 535738 393926 470974 426192 516044
2049.01 451442 515212 494594 611162 511228 641158
2054.79 587356 697312 579800 761276 687898 792914
2060.58 750768 863028 821576 1004194 945810 1046048
2066.37 1001218 1131896 1137402 1291674 1282610 1452648
2072.15 1395130 1567270 1573092 1806488 1806970 1996512
2077.94 2101298 2298276 2340536 2618244 2711428 3017316
2083.72 3121144 3426042 3550942 3861774 4024788 4360932
2089.51 4480984 4804664 4942478 5299282 5379038 5609438
2095.29 5792386 5926748 6168038 6600218 6764226 6901104
2101.08 6706952 6875462 7132180 7663218 8054872 8508928
2106.86 8603788 8749890 8763338 9071362 9428030 9904328
2112.65 10128690 10532380 10656530 11017250 11233830 11571030
2118.43 11664780 11960230 12106080 12304620 12407690 12586910
2124.22 12574980 12611170 12515380 12562030 12515080 12554320
2130.01 12447320 12565030 12409090 12524700 12553900 12693710
2135.79 12196520 11970840 11754230 11611310 11436330 11589920
2141.58 11590950 12062080 12577440 12269380 10969990 10566010
2147.36 10321910 10172210 9847324 9575658 9267208 9050214
2153.15 8530850 8283698 7827638 7416794 6873306 6516958
2158.93 5975142 5541312 5005536 4580406 4180722 3817456
2164.72 3444696 3216844 2885406 2735472 2498500 2373004
2170.50 2093598 2040524 1896666 1923382 1767346 1776748
2176.29 1604136 1668588 1550480 1569078 1395008 1489446
2182.07 1247898 1369694 1428064 1415780 1288372 1245954
2187.86 1111254 1314716 1286942 1348620 1276162 1260102
2193.64 1238432 1289358 1200954 1314420 1274106 1357464
2199.43 1275062 1351460 1344016 1400964 1369666 1434034
2205.22 1390668 1507450 1559598 1648744 1758260 1871596
2211.00 1891584 1944316 1970010 2020610 1915230 2037616
2216.79 2023164 2188038 2195368 2300020 2339772 2521596
2222.57 2628056 2853458 2947116 3212174 3194842 3314846
2228.36 3475848 3684628 3722902 3846746 3884464 3973224
2234.14 3965562 4089894 4157900 4276986 4345518 4448826
2239.93 4559890 4672436 4805344 5058458 5485934 5445450
2245.71 5202638 4947256 4562596 4625876 4608642 4738546
2251.50 4836160 4926464 4904148 5071776 4985046 5007828
2257.28 4919492 4935660 4801458 4855568 4623598 4634394
2263.07 4412832 4259178 4047030 4063912 3869676 3795328
2268.86 3615182 3575766 3431180 3419626 3253552 3153870
2274.64 2991368 2947230 2794110 2752286 2544680 2541614
2280.43 2402168 2465900 2262712 2278074 2110210 2112832
2286.21 2063540 2056382 1951572 1921998 1873708 1901596
2292.00 1822018 1810302 1714462 1723276 1635462 1655936
2297.78 1595778 1606916 1609176 1555386 1500380 1484174
2303.57 1481078 1498404 1516132 1533870 1502778 1564330
2309.35 1469074 1648758 1545096 1670588 1467030 1734288
2315.14 1404894 1707708 1526858 1808566 1380700 1716558
2320.92 1449540 1734554 1517126 1822452 1589902 1811942
2326.71 1734484 1879580 1657204 1769146 1629704 1760640
2332.50 1665710 1817638 1629636 1727340 1591898 1675430
2338.28 1599426 1649292 1552378 1538440 1435618 1445490
2344.07 1359602 1488928 1264878 1250286 1077854 1144000
2349.85 1132210 1231084 1180392 1241554 1214574 1336428
2355.64 1235844 1336922 1316438 1296020 1246624 1296550
2361.42 1180316 1236456 1163394 1164338 1016376 1024614
2367.21 963996 955294 812896 834292 682986 719330
2372.99 623352 600548 538262 585518 395486 418422
2378.78 354878 435902 288456 379044 326156 389774
2384.56 309382 328178 304428 316680 325132 369200
2390.35 359992 406664 341086 495040 448264 544528
2396.14 508820 614818 604152 689258 642868 808052
2401.92 825528 982012 953046 1107044 1038712 1199894
2407.71 1174632 1330050 1323352 1449954 1505284 1597602
2413.49 1592570 1656960 1738138 1824480 1841126 1944186
2419.28 1916454 2063684 1970816 2129214 2092098 2134288
2425.06 2115432 2141030 2089724 2166536 2174550 2261906
2430.85 2182866 2183498 2094572 2142166 2065732 2138912
2436.63 2046260 2083970 2023724 2192426 2159180 2427132
2442.42 2552984 2167948 1967028 1940122 1880548 1988626
2448.20 2382896 2303136 1608428 1357148 1123346 1041964
2453.99 984594 947764 897712 878336 703796 763196
2459.77 705822 737168 669294 719808 620874 707054
2465.56 603714 623402 540602 631682 537774 598052
2471.35 532834 661882 569432 630856 603094 623280
2477.13 623506 694594 724812 764250 712586 861540
2482.92 799590 887654 870942 896972 965572 981184
2488.70 914450 1019060 958260 1034834 1022916 1083630
2494.49 1097090 1080148 1044754 1176930 1170296 1202290
2500.27 1166202 1234892 1276300 1313972 1325198 1335480
2506.06 1257628 1385180 1322466 1431006 1344650 1366452
2511.84 1315424 1335296 1288742 1300236 1360090 1333414
2517.63 1322060 1330902 1308164 1319314 1275176 1370602
2523.41 1471068 1518730 1450900 1456494 1477666 1560284
2529.20 1547544 1688558 1630182 1743174 1747364 1808420
2534.99 1811492 1991276 1975636 2116634 2139178 2197952
2540.77 2279078 2355632 2550802 2613250 2674744 2839380
2546.56 3002972 3219974 3342382 3467046 3685106 3890016
2552.34 4066646 4311120 4402936 4666770 4800868 5017926
2558.13 5166468 5386018 5407608 5590436 5589394 5702234
2563.91 5666634 5692556 5681278 5776022 5843906 6022012
2569.70 6135944 6061126 6286292 6653486 7473112 7491096
2575.48 5692866 5544030 5549808 5556630 5450332 5705380
2581.27 5833918 6030288 5940232 5938428 5824166 5697622
2587.05 5447516 5319476 4962500 4722326 4338774 4091228
2592.84 3644942 3387988 2998720 2760890 2389136 2213840
2598.63 1991826 1807344 1612820 1504598 1385694 1322690
2604.41 1236582 1200796 1078090 1045972 1006476 1052410
2610.20 986930 1038974 965758 1072930 931876 988156
2615.98 893594 994814 921156 979344 1022814 1019384
2621.77 990294 1040022 988262 1060162 1051818 1179080
2627.55 1150846 1153856 1193158 1138670 1111352 1236324
2633.34 1159440 1260832 1242652 1220970 1226836 1311508
2639.12 1287328 1282276 1275112 1303106 1308574 1344058
2644.91 1229596 1345820 1248106 1262198 1196978 1260310
2650.69 1208458 1182482 1213418 1201536 1181818 1197556
2656.48 1220448 1133814 1158182 1084362 1120752 1158140
2662.27 986036 1079098 933748 992940 865806 882690
2668.05 852474 865102 790012 749424 724488 711056
2673.84 678404 677340 636906 638210 690532 672908
2679.62 662896 739198 653378 760150 697620 748684
2685.41 680360 763506 812860 774254 812232 829436
2691.19 785110 789184 807268 811698 808248 827588
2696.98 824022 993228 828492 825182 879464 887944
2702.76 968632 1026180 1138450 1209376 1126860 1155694
2708.55 1114990 1235434 1263446 1231130 1240110 1273738
2714.33 1288760 1249070 1149636 1199046 1196822 1132094
2720.12 1045138 1029590 1048218 1032758 985732 999874
2725.91 970644 1011648 963032 940662 802488 913854
2731.69 976978 990092 936182 1016770 1016098 1052568
2737.48 928454 961004 1001786 1108884 1052356 1037226
2743.26 1092984 1126952 1096516 1139054 1150496 1240852
2749.05 1253042 1310990 1325524 1391304 1418184 1568174
2754.83 1510530 1601706 1666150 1773116 1827518 2014934
2760.62 2029434 2225938 2250232 2392170 2525782 2550670
2766.40 2723972 2893460 2978200 3134368 3357666 3551738
2772.19 3689570 3932480 4030244 4144902 4330960 4663904
2777.97 4769970 4734646 4745914 4951144 5022390 5075776
2783.76 5165240 5333654 5468156 5547550 5671412 5885166
2789.54 5838602 5988136 5949676 6142754 6196204 6409248
2795.33 6534354 6734318 6829942 6645084 6560348 6572850
2801.12 6698692 6672788 6735512 6649490 6757780 6849850
2806.90 6676468 6701562 6711580 6713314 6656204 6770526
2812.69 6730414 6916774 6877850 6929704 6941548 7055490
2818.47 7045502 7306476 7530178 7672142 7750808 8119624
2824.26 8329956 8669314 8937662 9292366 9619498 10011690
2830.04 10466390 11036390 11518870 12067460 12471290 12956720
2835.83 13545540 14009460 14405810 14876310 15313670 15774380
2841.61 16003980 16418670 16706140 16962720 17302860 17555050
2847.40 17790680 18070000 18379100 18654990 18935100 19182230
2853.18 19457530 19500250 19766430 20035580 20102750 20210010
2858.97 20246630 20393470 20665270 21023910 21487650 21590000
2864.76 21358730 21168950 21034390 21067440 20877980 20570030
2870.54 20356690 20225440 19946540 19729410 19610190 19317890
2876.33 19273470 19118280 18998020 18868850 18781040 18715300
2882.11 18662830 18699690 18733950 18882380 18952980 19203920
2887.90 19356800 19622570 20021000 20694660 21429890 21652490
2893.68 22040700 22440860 23300530 24135880 25173680 26095680
2899.47 27162370 28377710 29695740 31074200 32712280 34521540
2905.25 36443500 38441710 40585640 42596590 45392680 48259660
2911.04 50821790 53525700 56387720 59032590 61927410 64809300
2916.82 67595890 69908210 72014810 73562500 75138300 76598390
2922.61 78049970 79405280 80453730 81031150 81808580 82807810
2928.40 84658650 83831260 83215890 82801930 82516120 83302580
2934.18 85988380 89494680 93296050 96046420 98492310 100397800
2939.97 103036600 105790400 106194700 106762000 107720100 108275100
2945.75 108957200 108684400 108268400 107084800 105897700 104158700
2951.54 102547000 100936200 99076580 96871160 95311530 93994900
2957.32 92205140 89423620 87045770 85522960 85617060 85731390
2963.11 88344270 92745300 101710400 115927800 135177700 184694500
2968.89 294447000 245059900 180448500 144534100 114997700 102472600
2974.68 92040960 88839380 84828490 83524640 82634100 84226780
2980.46 84535660 87122990 89188940 92281330 93823300 96626050
2986.25 98094990 100173000 101396400 103433100 104590800 106494000
2992.04 107920000 110074800 111975200 114463400 115993500 118482200
2997.82 120288800 122571000 124063900 125781600 126600800 127690600
3003.61 127969600 128011800 127293800 127362900 125808100 125320900
3009.39 123584700 123428600 123661400 125857300 129226200 134753200
3015.18 137230900 144850700 127385000 119005400 120641400 121608300
3020.96 123864600 124267400 125438300 125972800 126370400 126543200
3026.75 126237500 124918200 122782700 119638100 115862700 111216800
3032.53 105995600 100687300 95532280 90484940 85566000 80650550
3038.32 76024930 71697800 67492550 63701200 61134140 59110070
3044.10 57376320 55779330 54289920 52823160 51749390 50723400
3049.89 49848270 49248820 48736110 48555410 48391350 48067940
3055.67 47683010 47231150 46816150 46446940 46037400 45678860
3061.46 45539300 45344610 45326130 45303730 44869460 44686980
3067.25 44466010 44511410 44223360 44015670 43671440 43523000
3073.03 43068730 42595340 41919240 41531600 40852350 40715570
3078.82 40118290 39760980 39152960 38825770 38171180 37463120
3084.60 36749770 36216450 35614450 35181420 34516880 33906860
3090.39 33099550 31972530 30893600 29845550 28972730 27960090
3096.17 27083490 26376610 25826630 25168460 24523410 23771350
3101.96 22967120 22289550 21328420 20649960 19824600 19036470
3107.74 18343530 17693630 16826660 16140810 15541880 14891170
3113.53 14011460 13524070 12805980 12335230 11798270 11147900
3119.31 10666320 10430480 9882144 9531358 9018534 8760038
3125.10 8352486 8086500 7811134 7442758 7164090 7043050
3130.89 6778492 6583060 6211096 6223622 5906620 5861840
3136.67 5825996 5544832 5395584 5595878 5164788 5076776
3142.46 4951048 4903254 4798890 4703948 4703100 4694156
3148.24 4635950 4724762 4554302 4387608 4602250 4377260
3154.03 4198210 4197804 4171920 4265312 4042074 4084104
3159.81 3991124 3866318 3969162 3955494 3831304 3930132
3165.60 3743000 3764426 3743914 3749818 3680418 3654564
3171.38 3563934 3501968 3377774 3482986 3447824 3480424
3177.17 3390300 3368748 3167694 3136606 3130378 3116462
3182.95 3082512 3015562 2903340 2880164 2731864 2803674
3188.74 2700558 2594310 2678996 2479400 2495332 2498706
3194.53 2407710 2413314 2265708 2369138 2229848 2210470
3200.31 2117576 2134200 2042390 1987482 1958906 1958628
3206.10 1894718 1946168 1784156 1865770 1829332 1769718
3211.88 1770350 1682158 1684932 1675860 1657968 1576102
3217.67 1555736 1610268 1602754 1489346 1612410 1379542
3223.45 1516282 1553470 1464506 1333698 1383490 1395462
3229.24 1470282 1394440 1469170 1288806 1243742 1345834
3235.02 1302528 1356456 1310584 1416862 1197326 1322162
3240.81 1221334 1211840 1202754 1349120 1153376 1185858
3246.59 1127022 1208526 1042814 1221264 1186034 1117046
3252.38 1234612 1275952 1067234 1126576 1140398 1114642
3258.17 1092782 1026248 1084820 1099974 1040582 976794
3263.95 1093482 947542 1036884 933932 964658 949054
3269.74 879450 920852 1127676 941754 972106 939052
3275.52 1044748 979178 1032426 869022 1014108 1050082
3281.31 1008332 994822 1029456 900614 1040626 997500
3287.09 1125784 1133900 939514 1042674 1166126 1070254
3292.88 920504 1068920 951574 1003854 979186 1048302
3298.66 1052006 1171042 1024270 941694 916652 930656
3304.45 1021084 973116 1018528 1034590 1129794 1118730
3310.23 1016600 1031684 823118 962480 961068 988240
3316.02 955718 1051910 911638 957440 835842 882858
3321.80 867418 859740 818658 920374 799092 963498
3327.59 791616 736050 657438 721200 793840 635666
3333.38 702160 692216 667354 624448 537702 665736
3339.16 689838 635518 559438 573396 631390 579870
3344.95 466422 610660 653462 680718 597074 436650
3350.73 591254 578178 653584 670856 533820 654634
3356.52 571612 682954 695190 581004 565232 706204
3362.30 637164 813830 751706 682338 673854 818754
3368.09 591530 878390 869740 940822 932372 1034200
3373.87 1033692 1116512 1062750 1114590 1328182 1205836
3379.66 1168986 1339618 1322636 1416404 1479468 1242550
3385.44 1431758 1427176 1402566 1331000 1407004 1402492
3391.23 1572780 1560144 1404242 1357508 1383326 1504164
3397.02 1554088 1540120 1342824 1501350 1572398 1602036
3402.80 1545828 1606534 1566146 1633740 1737134 1733002
3408.59 1771954 2036430 1986990 2087986 2306498 2472024
3414.37 2657420 2851294 3058314 3349436 3558290 4080472
3420.16 4346282 4782562 5226042 5791918 6234260 6786716
3425.94 7514244 8124448 8868802 9617756 10383330 11147520
3431.73 11792010 12848700 13562500 14337840 14961050 15721700
3437.51 16385170 17057160 17608910 18115980 18764560 19430910
3443.30 19761910 20339170 20756250 21538360 21643350 21810300
3449.08 21343460 21783100 22634970 24046830 25336990 25995510
3454.87 25754790 25641290 25315800 25062060 24933300 24958060
3460.66 24797180 24915990 24762030 24579960 24219800 23915630
3466.44 23446020 22825040 22320800 21665900 21039140 20450430
3472.23 19600870 18862160 18228460 17255010 16565330 15725060
3478.01 14879960 14207180 13537500 12790360 12102520 11458520
3483.80 10708010 10014450 9461494 8778928 8324896 8028212
3489.58 7895518 7566634 7179204 6854432 6801958 6628868
3495.37 6245702 5918588 5493046 5325602 5171744 4937254
3501.15 4729212 4630772 4300646 3952908 3673322 3541440
3506.94 3200362 3188094 2848202 2616956 2606644 2335450
3512.72 2219062 1969330 1932836 1626050 1647858 1495036
3518.51 1574346 1265146 1302170 1144660 1270430 1106476
3524.30 1064924 1014680 1000644 902412 865490 725962
3530.08 764736 524882 560174 425686 416606 514324
3535.87 523446 347642 373372 260536 229606 42556
3541.65 432644 247908 408540 207552 304094 454844
3547.44 101890 102568 165328 210344 466310 314184
3553.22 140562 66248 180814 180386 263112 119674
3559.01 261198 128332 204114 111000 319210 114914
3564.79 701052 676516 691658 698060-195238 270320
3570.58-72282-1734-214566 6984-197180 10972
3576.36-86490-220664-48488 128098-263720-34524
3582.15-256650-17574-271754 582082 600932 200690
3587.94 1271246-432854 61734-314668 413568-34762
3593.72 56754 365792 13114-89750 170014-14066
3599.51 229336 137260 26156-26566-12526-55618
3605.29 238210 500678-40264 1762238 514918-437180
3611.08 863886 834740 130098 638172-68190 209614
3616.86 718594 405124 1787130 105408 385742-104150
3622.65 365510-216520 377762-28630 769196 2068484
3628.43 2916848 1073652-36104 107958 345814 577140
3634.22-16220 153592 113434 302958 220014 78188
3640.00 181102 79682 403936-69160 462812 210
3645.79 1651388 866818 1847754 2902182 845590 1800490
3651.57-261870 577288-148074 950062 2226976 323608
3657.36 69560 333296 94456 340488 164716 248040
3663.15 249010 177160 372634 226078 702880 1487816
3668.93 997950 4372448 86144 557190 382582 2269444
3674.72 3916864 2174284-154020 1018594 624226 854194
3680.50 67660 624378 77282 800906 34440 776410
3686.29-73218 4812156 1955530 92422 2191540 705102
3692.07 489200 502520 508424 557096 487932 495542
3697.86 480600 529558 472212 1788760 667432 511698
3703.64 434960 612396 508588 531000 634530 2113070
3709.43 455776 1524254 3732108 549670 723784 658952
3715.21 581036 652180 650350 1061774 573624 583328
3721.00 1234882 1049642 558394 1138150 832058 1674546
3726.79 504528 858374 638948 775540 1953668 3099880
3732.57-42258 2836264 1220632 3339932 1533948 1266318
3738.36 836726 1037200 1006560 1262320 352346 6404602
3744.14 5934204-158188 1897846 157742 4441068 4383164
3749.93-382090 5595148 3561306 454578 1198946 989386
3755.71 1706718 845066 982896 2019076 1364356 788294
3761.50 1059988 950148 869880 1744984 1495424 818868
3767.28 1037772 1477402 2677412 782338 1349476 807024
3773.07 1230842 864086 1076264 1022970 1237888 1596312
3778.85 2116678 931894 1514890 1087070 1387972 1533352
3784.64 1528076 1135314 1478550 1138856 1503626 1263032
3790.43 1548882 1212330 1488486 1246914 1655170 2171630
3796.21 2240324 1172844 2194824 986948 5490398 4250794
3802.00 1549304 2173042 1611212 1846330 4491788 2916046
3807.78 1027354 2218060 1095382 2003886 1257626 2239088
3813.57 821598 4255638 5342954 906002 2169354 1462326
3819.35 2955102 3900576 3001644 1312178 1934626 1352372
3825.14 1906818 2051546 1552784 1524554 1398802 1830196
3830.92 2824244 1245486 1568238 2503896 2159394 708452
3836.71 6129838 2730902 1038580 2316898 1706774 1036474
3842.49 1986526 1545506 877988 1080764 927192 1083314
3848.28 1155616 1060874 1337902 5289906 1092530 8636800
3854.07 2909954 416544 1571084 963640 870996 766126
3859.85 1073492 1681120 1030384 745798 2350402 2105594
3865.64 399968 1026278 706308 3132340 2845214 442394
3871.42 949542 804570 1886036 712908 730948 640572
3877.21 691826 719564 1877960 1325828 521602 1114718
3882.99 611310 1435516 3350650 608782 765086 726558
3888.78 650096 1539940 2608474 444278 1245344 678300
3894.56 991476 647478 1148250 928792 2817926 586768
3900.35 2070236 2161970 976506 3031796 1238316 1511294
3906.13 1071570 1103926 1101980 1079282 1165780 1176384
3911.92 1234884 1246062 1389306 1175654 1962784 1938946
3917.70 1110600 1882292 1640448 1227930 1476904 1445676
3923.49 1696120 1813968 1239166 1344184 1517096 1568078
3929.28 1534136 1399802 1974776 1629894 1453676 1655282
3935.06 1534530 1345240 1474130 1517610 1484016 1501430
3940.85 1467166 1855844 1486480 1529056 1517746 1492074
3946.63 1683594 1430578 1642002 1656096 1393154 1517450
3952.42 1356710 1531184 1556606 1440758 1531178 1594528
3958.20 1573516 1642732 1625668 1797104 1607580 1660976
3963.99 1769828 1800424 1771648 1871884 1943238 2054026
3969.77 1948464 2160288 2275940 2165722 2396636
##END=
