##TITLE=Acetone
##JCAMP-DX=4.24
##DATA TYPE=INFRARED SPECTRUM
##CLASS=IUPAC A
##ORIGIN=NIST, Anayltical Chemistry Division, 301-975-3108
##OWNER=COPYRIGHT (C) 1998 by the U.S. Secretary of Commerce
##DATE=98/10/1
##$SPECTRA VERSION=1.00
##$UNCERTAINTY IN Y=2.3 % relative (B=1.3E-04,C=1.7E-09,D=2.7E-14)
##CAS NAME=2-Propanone
##CAS REGISTRY NO=67-64-1
##MOLFORM=C H3 C O C H3
##MP=-95.35 C
##BP=56.2 C
##$NIST SOURCE=QUANT-IR
##SPECTROMETER/DATA SYSTEM=IFS66V (Bruker)
##INSTRUMENT PARAMETERS=KBr Beam splitter; MCT Detector; Multipass cell
##STATE=gas
##SAMPLE DESCRIPTION=Acetone Primary Gas Standard
##PRESSURE=101.3 kPa
##TEMPERATURE=23 C
##SAMPLING PROCEDURE=1 L/min Flow
##RESOLUTION=1.9290
##DATA PROCESSING=3-Term B-H Apodization
##XUNITS=cm-1
##YUNITS=(micromol/mol)-1m-1 (base 10)
##XFACTOR=1.0
##YFACTOR=4.5474E-13
##DELTAX=0.9645
##FIRSTX=574.687
##LASTX=3974.595
##FIRSTY=3.57E-07
##MAXX=3973.63
##MINX=574.69
##MAXY=.0005162
##MINY=-1.23E-07
##NPOINTS=3527
##XYDATA=(X++(Y..Y))
574.69 785366 412938 371328 490778 487958 451844
579.51 357340 201316 255984 345908 437034 658370
585.29 629924 358028 116176-35816 49198 332442
591.08 528064 529770 385352 240714 213780 161828
596.86 112640 147894 187536 197116 184070 203910
602.65 187114 85872 73226 137828 102354 5926
608.44 7100 90170 204888 287680 294780 260740
614.22 208458 149282 73274-9202-40426-16840
620.01 52196 114486 91762 15464-34032-49036
625.79-54542-68108-84708-82446-30798 32084
631.58 548-106744-208972-186990-71524-58114
637.36-128576-98148-20868-84934-183926-159540
643.15-84690-83548-120856-122248-137224-207246
648.93-212338-121992-40520-46006-164426-265570
654.72-241422-164086-132078-126908-114168-117614
660.50-148384-197210-262816-271718-213276-84098
666.29 145620 231344 83968-66522-120366-98000
672.08-61564-81278-131920-136464-115854-106550
677.86-114646-99920-84170-96898-100800-98032
683.65-82350-58188-68364-101556-91548-39366
689.43-18914-38990-35540-24400-25416-25366
695.22-55210-48940-2374-6640 17644 91186
701.00 77370 15692 31898 83438 75714 54014
706.79 63888 101154 162250 204474 212806 207202
712.57 194688 215786 257114 255328 261898 340920
718.36 427644 476026 500966 537600 580662 589156
724.14 670780 800320 831240 838272 909468 996936
729.93 1068988 1141288 1247192 1370666 1490970 1608962
735.71 1706394 1816040 1957480 2113904 2291062 2493700
741.50 2723598 2950732 3147640 3370298 3664554 3994786
747.29 4329442 4670178 5022072 5397270 5826570 6291794
753.07 6762276 7249772 7738692 8204302 8677876 9157080
758.86 9608280 10059610 10577130 11120790 11551750 11829370
764.64 12051900 12309770 12538840 12738850 12992470 13234590
770.43 13345100 13295460 13140970 12955330 12796110 12784900
776.21 13085250 13491500 13607300 13396160 13044990 12761920
782.00 12807430 13265960 13826210 14058290 13886270 13516360
787.78 13110250 12743520 12397590 12011760 11602860 11139210
793.57 10568940 9984706 9388704 8675590 7920666 7179518
799.35 6414426 5648432 4977252 4436224 3952916 3513140
805.14 3128982 2783444 2499860 2325002 2181752 1938654
810.93 1633546 1386668 1216438 1112652 1032424 952372
816.71 928494 923686 857498 791854 815490 840798
822.50 798918 776970 825412 887416 900402 888726
828.28 865108 862036 907080 987280 1084268 1116934
834.07 1116914 1168388 1248704 1335768 1402486 1445498
839.85 1505678 1563834 1616776 1671430 1732438 1826894
845.64 1951462 2087216 2229582 2395930 2579320 2747100
851.42 2933216 3188426 3470320 3753194 4103746 4566082
857.21 5055360 5540778 6095850 6762750 7529068 8369550
862.99 9318286 10396480 11571780 12814060 14151150 15616920
868.78 17208030 18947440 20827250 22760020 24653970 26512340
874.57 28250900 29541560 30083580 29947690 29685880 29956920
880.35 30800380 31739130 32404560 33010050 35078510 39441000
886.14 42631570 42707500 42601490 42970730 42320740 41603080
891.92 43332050 47979010 51549940 51386700 50271420 50341010
897.71 50986320 51360120 51199460 50536780 49793750 49291260
903.49 48923540 48551710 48126400 47499220 46635920 45633420
909.28 44519420 43292810 42003190 40652480 39209750 37644580
915.06 36026630 34484810 33044620 31645230 30318760 29099200
920.85 27981120 26915700 25827790 24740910 23714970 22734540
926.63 21807700 20920070 20048400 19164350 18283610 17426590
932.42 16621740 15886710 15184670 14461220 13749360 13098530
938.21 12484460 11883600 11364870 10949070 10568260 10197040
943.99 9869422 9595076 9359906 9133826 8949676 8823896
949.78 8712658 8587742 8477698 8392126 8316170 8246382
955.56 8218858 8237520 8249148 8213452 8155748 8081000
961.35 8005392 7921246 7800660 7642168 7521876 7559958
967.13 7766266 7836694 7616814 7393568 7282978 7193860
972.92 7122340 7052880 6974578 6915576 6903508 6895582
978.70 6859882 6812372 6750002 6655458 6549228 6432616
984.49 6319998 6249280 6224624 6183506 6077112 5899664
990.27 5704074 5506126 5300752 5118292 4988938 4883598
996.06 4784176 4722366 4737132 4760486 4681276 4481756
1001.85 4263948 4095870 3984112 3918414 3903032 3912122
1007.63 3899104 3875808 3909662 3972662 3965386 3897218
1013.42 3861894 3825370 3766534 3706982 3685220 3740094
1019.20 3738636 3607290 3514304 3504402 3522030 3525680
1024.99 3530542 3543768 3562092 3584970 3634256 3707152
1030.77 3761174 3789286 3849472 3931368 4032234 4159662
1036.56 4274924 4340478 4380828 4458980 4569432 4640858
1042.34 4713506 4792374 4864644 4935984 5006752 5079152
1048.13 5163720 5248750 5311956 5348892 5393830 5459760
1053.91 5536262 5609622 5717406 5861874 6026784 6202628
1059.70 6406264 6616516 6815270 7026872 7280298 7568958
1065.48 7908202 8255500 8600828 8961460 9349524 9743578
1071.27 10127550 10490640 10872690 11256140 11632730 12027690
1077.06 12449310 12799130 13027570 13262910 13552340 13854000
1082.84 14310230 14979590 15934510 17384530 19480570 22576860
1088.63 27860650 37832780 46835740 43465410 37205720 36135620
1094.41 30517280 23329580 20811340 20276490 20081760 20201660
1100.20 20554720 21039620 21548770 22042090 22512810 22908580
1105.98 23177740 23337880 23448440 23499100 23448400 23283560
1111.77 23003420 22619320 22137590 21534580 20838760 20106090
1117.55 19330250 18497400 17675130 16897220 16105690 15275460
1123.34 14458230 13692170 12972570 12283750 11632620 10998710
1129.12 10402500 9872696 9377624 8896522 8459650 8072650
1134.91 7750448 7456708 7162364 6876554 6625752 6409112
1140.70 6221472 6074466 5959808 5820604 5646682 5485730
1146.48 5365252 5274744 5233448 5231874 5237738 5252904
1152.27 5293468 5353794 5444938 5540390 5660500 5855206
1158.05 6105202 6355672 6638328 6972900 7365616 7814620
1163.84 8344280 8950290 9624484 10375190 11222720 12159810
1169.62 13200210 14367700 15681690 17144250 18781440 20591280
1175.41 22639600 25000970 27719060 30859470 34538060 38861120
1181.19 43978700 50049730 57294250 65939910 76216650 88367990
1186.98 102684500 119447900 138816200 160282400 183367800 208416900
1192.76 235344800 264126100 295670900 329722700 364907500 399976400
1198.55 433959700 465729600 494333300 519540100 541153700 558190600
1204.34 568323600 569375600 563539700 554567900 544100500 534886500
1210.12 530853500 535288400 554725800 598072200 667169300 749798600
1215.91 810637100 800001000 710363000 580192800 469409300 436212300
1221.69 463248200 503456700 541453100 574876300 602636000 623129900
1227.48 634223300 633586100 620110000 595482800 562278200 521712900
1233.26 475095300 424827400 373198100 322171300 273659500 229190100
1239.05 189628300 155253000 126043000 101856300 82228840 66484270
1244.83 53962060 44115460 36457240 30525700 25906270 22289910
1250.62 19462360 17228980 15415200 13929560 12700270 11670000
1256.40 10801700 10060460 9425498 8885272 8429394 8050878
1262.19 7740232 7466146 7220082 7020392 6861228 6727844
1267.98 6626396 6536994 6471730 6425292 6375460 6360202
1273.76 6396480 6447012 6500898 6575320 6673770 6774642
1279.55 6884372 7005446 7144456 7303520 7487772 7707884
1285.33 7985742 8310036 8772540 9427690 9859564 9764110
1291.12 9648726 9821134 10104640 10413200 10780070 11195560
1296.90 11658360 12171970 12735200 13335350 13980550 14655450
1302.69 15324960 16016910 16808590 17624030 18440950 19342570
1308.47 20339410 21418140 22620810 23863940 25176120 26703140
1314.26 28405410 30088930 31677530 33334400 35258240 37432340
1320.04 39872750 42607640 45628860 48908420 52474800 56333930
1325.83 60589650 65390020 70845700 77006060 83904500 91539380
1331.61 100089000 109771600 120749900 133092400 146844200 162057100
1337.40 178861300 197313400 217362200 238877200 261931600 286385000
1343.19 311847800 337959600 364371000 390668900 416729700 442037400
1348.97 465938700 487754900 505594000 517950100 526054300 530502800
1354.76 529208700 522434000 514896400 514775600 534992900 570830400
1360.54 589998600 589855800 609811500 685154500 751908400 711923000
1366.33 646571000 639060900 649982500 650033900 643304800 636813800
1372.11 629932400 621285400 610991400 598597200 583456300 565484400
1377.90 545162000 522460500 494805000 461234000 425025400 389508000
1383.68 355633500 323423900 293198500 265216300 239552100 216823500
1389.47 197257500 180598400 166588800 155201800 145960200 138021600
1395.25 131336700 126251400 122626800 119952900 117677600 115974400
1401.04 115032300 114698800 114784700 114983300 115297800 116477400
1406.83 119124700 122967500 125943800 126408500 126852000 130035700
1412.61 134950300 139475800 142667300 145076200 147693800 151112900
1418.40 154636300 157199500 159675900 162514800 164825500 166196900
1424.18 166794600 167029700 166917600 166200700 164990500 163791600
1429.97 163901900 167248500 173782200 180534800 183643600 181992100
1435.75 177841500 174768300 175171600 177834700 179143900 177292100
1441.54 173908300 170875800 169058400 168698200 169264700 170583700
1447.32 170889200 167248500 160336400 152855500 146748600 147696400
1453.11 161053000 168000200 153683900 136958800 128362900 123632400
1458.89 120351600 117639900 114915200 111662200 108379200 105332500
1464.68 101840100 98233570 95091730 92359400 90077210 88597440
1470.47 88307420 88518250 87134700 83238430 79032260 76114260
1476.25 73589340 70883310 67657000 63909440 60345840 57494720
1482.04 55479390 53995120 52135660 49962340 48276500 46972540
1487.82 45883680 45068520 44015420 42690980 41590600 40849140
1493.61 40513260 40809870 40660480 39673030 39069280 38580280
1499.39 37898660 37490630 37198960 36934150 37200320 38286620
1505.18 39312380 39836500 40044150 39330900 37576080 36322110
1510.96 36061940 35905000 35718760 35757350 35933750 36222320
1516.75 36105400 35768090 36391670 37933520 38534280 37644300
1522.53 36782320 36928890 37481230 37401980 36911370 36395120
1528.32 35857880 35533160 35515790 35765410 36174240 36069790
1534.11 35440900 35118050 35270540 36276310 37700630 37740180
1539.89 36735500 36106180 35344330 34521420 34319530 33947150
1545.68 33260300 33028210 33286060 33360060 32723880 31942780
1551.46 31740710 32222810 32458580 31633220 31184050 32261210
1557.25 33511390 33640740 32752720 30856490 29273780 28752880
1563.03 28496190 28076240 27409640 26805850 26544460 26690150
1568.82 26564820 25602600 24549850 23842820 23292780 23354150
1574.60 24300900 24106510 22234440 20880710 20314010 19898720
1580.39 19509140 19110920 18702180 18319440 17963380 17641590
1586.17 17320110 16981430 16621730 16248000 15838420 15401820
1591.96 14992730 14632060 14239690 13813500 13384250 12968480
1597.74 12588080 12240550 11898040 11556540 11215480 10882480
1603.53 10556600 10267260 10025820 9800484 9583014 9375450
1609.32 9100684 8809728 8582002 8411196 8298510 8686578
1615.10 9888942 10109490 8723362 7778582 7619204 7589816
1620.89 7668836 8042808 8161996 7670278 7244942 7253928
1626.67 7396536 7282160 7060118 6989126 6994896 7055326
1632.46 7356468 8446188 9583576 9190022 8218066 7835896
1638.24 7763656 7866672 8026236 8220272 8435736 8840630
1644.03 9906068 10982590 11008870 10692950 10496470 10459850
1649.81 11232800 13623510 16020970 15699360 13804080 12619600
1655.60 12356050 12512570 12731710 12962120 13221300 13695540
1661.38 14326280 14469290 14248710 14461740 15274710 16665120
1667.17 18434780 19804570 20063480 20048400 20390800 21029120
1672.96 22433790 24393850 25514060 25951810 26841760 28143290
1678.74 29560920 30879900 32256060 34234140 37065980 39751970
1684.53 40402340 40437120 42044610 44583930 47448220 50689380
1690.31 54327290 58370780 62852800 68473780 76191170 84497130
1696.10 92810380 103780700 117808500 132240200 144886700 157857400
1701.88 174169300 193870100 216094500 240762600 267893600 297307900
1707.67 329221300 363402000 399152300 435963200 473443600 510994200
1713.45 547922900 583573800 618244500 651378300 680759500 707012700
1719.24 731880600 755594300 777991900 798790800 817598600 834496500
1725.02 849878500 863744600 873829800 875196700 868129000 861979500
1730.81 869572200 900929700 956031400 1020542000 1075014000 1110043000
1736.60 1127975000 1135262000 1132570000 1117569000 1096406000 1076952000
1742.38 1059257000 1041489000 1021959000 998573900 972535500 947015100
1748.17 923820000 904548800 888032300 867825100 840404200 806886600
1753.95 769865700 733813600 701231000 672399800 647251100 624534400
1759.74 602735000 578088800 547210000 513407100 480803800 450404700
1765.52 422177300 395828400 371681500 350886700 332570900 314882000
1771.31 300140300 287251200 268570500 244292000 222596700 208367100
1777.09 199281800 190550800 181525600 173720000 167482300 162449900
1782.88 158053600 153957900 150063900 145833800 139825800 131696500
1788.66 123531200 117441500 113361000 109588400 104651300 99049200
1794.45 93559660 88069910 82738830 77976920 73892510 70199120
1800.24 66662340 63150090 59611520 56251130 53249010 50559190
1806.02 48002360 45429710 42887420 40505310 38166840 35806130
1811.81 33564370 31472680 29534040 27780320 26214320 24776330
1817.59 23407570 22142960 20993610 19941980 18992460 18183100
1823.38 17607690 17015850 16131910 15306310 14797870 14526230
1829.16 14113840 13311880 12539110 12031930 11678120 11421650
1834.95 11155440 10816880 10443720 10124810 9930112 9739374
1840.73 9464390 9371692 9546716 9182634 8165950 7454056
1846.52 7127266 6795436 6427982 6118984 5861570 5635488
1852.30 5430928 5257270 5094796 4935566 4779172 4612224
1858.09 4430430 4274418 4144732 4018022 3896544 3808208
1863.88 3758520 3737336 3738774 3810492 3929414 3841456
1869.66 3517566 3291746 3208204 3157954 3098892 3033710
1875.45 2964968 2897548 2834322 2773208 2706834 2651080
1881.23 2604536 2555896 2514144 2504534 2543980 2597120
1887.02 2565746 2501114 2367276 2151538 2020362 1981564
1892.80 1984396 2008134 1982058 1913756 1860762 1819000
1898.59 1776302 1735024 1677688 1615614 1561542 1503828
1904.37 1437582 1379376 1336394 1297128 1263920 1221800
1910.16 1136192 1057358 998228 946070 903258 910100
1915.94 1071216 1242896 1097924 864076 822290 898766
1921.73 977238 945762 849270 808538 805988 797922
1927.51 787036 787688 791788 791648 796812 814408
1933.30 825646 828138 836220 855576 865378 865856
1939.09 879724 950774 1079834 1108786 1018734 996084
1944.87 1031586 1052356 1063038 1089242 1125982 1163316
1950.66 1208720 1261818 1306312 1345570 1378520 1419686
1956.44 1479470 1536992 1582800 1639020 1697996 1746754
1962.23 1790202 1835876 1896210 1999626 2106346 2156038
1968.01 2164542 2176536 2204612 2243630 2293686 2355190
1973.80 2389116 2400452 2417088 2441448 2476350 2508722
1979.58 2506328 2481252 2463422 2459738 2455512 2469906
1985.37 2487774 2481930 2426606 2321966 2264610 2336288
1991.15 2402970 2350422 2285442 2224810 2102102 1993930
1996.94 1943200 1908032 1852378 1788666 1729432 1672946
2002.73 1605718 1523896 1430718 1325698 1216762 1110522
2008.51 999116 901468 814478 726506 649124 585108
2014.30 532062 512530 495382 452728 413148 390782
2020.08 377108 367996 349584 332836 336804 347086
2025.87 339488 325908 325570 331794 329594 324150
2031.65 321940 323864 337110 357604 358162 352254
2037.44 360158 373338 379658 391410 400426 403368
2043.22 422750 449446 448194 445018 459408 475802
2049.01 484086 498052 527672 554690 570770 596486
2054.79 624780 641034 658762 696594 730488 757828
2060.58 789496 827604 879436 940304 982544 1011702
2066.37 1048080 1103684 1174768 1251088 1325872 1394202
2072.15 1454856 1530830 1631922 1746596 1856398 1979852
2077.94 2122050 2260506 2404324 2575472 2765882 2967430
2083.72 3171960 3382332 3598942 3827514 4067160 4304978
2089.51 4531852 4760440 4995970 5223052 5415596 5597918
2095.29 5778806 5967458 6224262 6518744 6731592 6805818
2101.08 6816286 6929626 7220130 7630838 8055590 8395614
2106.86 8601112 8720078 8856632 9103726 9459216 9833536
2112.65 10166460 10457170 10717340 10984120 11258040 11503950
2118.43 11715370 11921230 12113650 12278410 12421320 12529140
2124.22 12577960 12575430 12553160 12540380 12533850 12518670
2130.01 12504390 12494930 12483900 12511500 12561530 12499910
2135.79 12260700 11987490 11777490 11616730 11536780 11571520
2141.58 11740850 12062590 12269840 11947080 11230750 10657660
2147.36 10352270 10120600 9856384 9569324 9283772 8965444
2153.15 8599884 8227750 7828940 7382492 6922088 6467816
2158.93 5999176 5516534 5038798 4594578 4193298 3821524
2164.72 3487746 3195798 2937388 2718528 2525518 2335902
2170.50 2158142 2026470 1941778 1876750 1807160 1732992
2176.29 1667452 1623514 1580456 1521934 1462136 1404272
2182.07 1351252 1360484 1397818 1378588 1308034 1232448
2187.86 1209356 1255810 1301810 1310402 1289126 1263372
2193.64 1256502 1254530 1255558 1276876 1302012 1314284
2199.43 1317260 1332802 1358320 1378360 1393282 1408830
2205.22 1436368 1494060 1569980 1657042 1756622 1842426
2211.00 1897556 1937730 1970928 1979458 1978338 2008860
2216.79 2070322 2147322 2218478 2288216 2380816 2507216
2222.57 2658866 2821748 2986930 3131780 3230326 3335626
2228.36 3486390 3633984 3740804 3823908 3893976 3948848
2234.14 4002806 4078672 4170420 4263804 4355228 4452806
2239.93 4561490 4683936 4852484 5101874 5331336 5360052
2245.71 5185380 4922100 4701210 4623040 4652434 4733494
2251.50 4828022 4896760 4951912 5000208 5006488 4979858
2257.28 4943412 4897938 4845936 4778810 4682688 4570488
2263.07 4423584 4251754 4111472 4008486 3896446 3770950
2268.86 3652984 3552114 3464528 3376844 3266720 3140584
2274.64 3023386 2920582 2819730 2710420 2599800 2513032
2280.43 2452834 2395056 2316564 2233386 2156814 2104226
2286.21 2071436 2029002 1971640 1921858 1893696 1872052
2292.00 1836688 1789542 1741628 1700018 1663958 1636602
2297.78 1615618 1604608 1590392 1554304 1513578 1490820
2303.57 1488312 1499346 1514216 1521524 1525020 1527458
2309.35 1541818 1575788 1596000 1590388 1584788 1582280
2315.14 1569464 1592432 1631310 1624402 1579212 1570936
2320.92 1586822 1612328 1647380 1684744 1705836 1740530
2326.71 1781062 1781108 1742346 1710646 1699482 1707044
2332.50 1724266 1727236 1700646 1670860 1648166 1636762
2338.28 1628578 1609420 1570258 1517036 1465268 1427070
2344.07 1412400 1389844 1313330 1216262 1146768 1132272
2349.85 1159496 1190840 1207664 1222970 1251088 1277352
2355.64 1288362 1305040 1310496 1290452 1271472 1252812
2361.42 1225154 1203838 1176652 1124616 1058984 1010274
2367.21 973002 919986 854484 791566 732452 686260
2372.99 640548 594836 563228 520462 452514 404220
2378.78 389820 376120 351798 346028 352982 351082
2384.56 334526 319578 314400 318270 334552 355350
2390.35 371764 380756 400694 443562 482002 512520
2396.14 545450 585960 625734 658302 701204 773490
2401.92 857926 933938 996906 1050460 1097800 1154990
2407.71 1220088 1289314 1357830 1433322 1510736 1569886
2413.49 1612150 1665420 1737736 1805248 1861528 1911640
2419.28 1959150 2001816 2035976 2078180 2107948 2119168
2425.06 2124548 2122642 2125976 2152188 2191258 2213626
2430.85 2198858 2162686 2130890 2112820 2103324 2095610
2436.63 2078570 2066074 2086940 2147188 2244344 2372216
2442.42 2387076 2214994 2030104 1942940 1945580 2070360
2448.20 2214392 2100220 1730206 1386484 1174984 1056692
2453.99 991758 945456 901104 837924 769756 737676
2459.77 726366 712828 698274 682812 668164 657098
2465.56 632500 601548 586248 584002 576048 570692
2471.35 582808 603022 607596 609598 614498 621440
2477.13 644338 684360 722608 742682 766426 806252
2482.92 836290 860922 882498 910530 946616 958862
2488.70 960836 977034 993262 1014128 1041362 1069804
2494.49 1084516 1079530 1093488 1139568 1174770 1185640
2500.27 1196792 1229946 1272946 1305112 1320350 1314672
2506.06 1313972 1337694 1363380 1378148 1369520 1349656
2511.84 1333162 1318616 1307066 1314970 1334230 1335812
2517.63 1328040 1322686 1315838 1308050 1318962 1375692
2523.41 1449372 1481666 1471026 1466946 1494660 1537532
2529.20 1586300 1636036 1674182 1716528 1759410 1798654
2534.99 1859416 1940382 2014580 2085420 2147254 2206538
2540.77 2283162 2389100 2511930 2611766 2708496 2845240
2546.56 3016702 3191152 3343074 3497248 3683372 3882906
2552.34 4081732 4270550 4448172 4634318 4820226 5001552
2558.13 5179202 5330286 5445368 5541026 5613584 5660494
2563.91 5679460 5686992 5713516 5775778 5876454 5997852
2569.70 6083376 6157670 6362682 6775754 7156152 6928960
2575.48 6168046 5660120 5551794 5533882 5559362 5680886
2581.27 5839810 5942524 5953378 5904550 5810788 5661442
2587.05 5473590 5253848 4986062 4685312 4369832 4038930
2592.84 3693930 3358088 3037846 2730744 2446418 2207786
2598.63 2001888 1808956 1640306 1506728 1402692 1319320
2604.41 1248728 1177868 1104066 1050524 1029792 1023906
2610.20 1016102 1009690 1010130 1006474 980792 954252
2615.98 944908 950432 956890 977880 1005830 1012232
2621.77 1011110 1014754 1021624 1044112 1086958 1134688
2627.55 1156372 1163282 1164908 1149898 1154384 1183210
2633.34 1205182 1228536 1237858 1232988 1249464 1279684
2639.12 1289206 1283734 1285668 1298298 1311586 1305202
2644.91 1290846 1289216 1273162 1245704 1231438 1228646
2650.69 1214636 1200478 1201318 1198674 1193420 1196968
2656.48 1189204 1161994 1134738 1116660 1117146 1099970
2662.27 1055268 1019506 984012 945632 903798 874642
2668.05 861186 839394 798474 756380 728120 706460
2673.84 686444 667332 651058 653826 669912 676054
2679.62 685086 697070 703420 716748 723444 720026
2685.41 723974 754938 785704 795066 806014 810348
2691.19 799102 795156 803032 809476 814504 827822
2696.98 866556 896934 870492 848652 869584 908898
2702.76 966070 1041574 1120978 1161820 1154550 1143680
2708.55 1161430 1209110 1241632 1243262 1249094 1266444
2714.33 1267710 1233202 1194044 1185530 1173394 1125156
2720.12 1069032 1042278 1037140 1023476 1002826 990854
2725.91 988414 986074 963504 913602 877838 905934
2731.69 956010 971456 974424 996916 1018700 1007574
2737.48 973804 972536 1017382 1059482 1062262 1061254
2743.26 1086094 1107856 1116668 1134872 1172052 1220152
2749.05 1263234 1300592 1339072 1385452 1448798 1510842
2754.83 1550060 1600518 1676956 1762828 1862214 1970696
2760.62 2075460 2181324 2281668 2389792 2495670 2594892
2766.40 2725244 2868340 3000930 3158058 3348512 3536296
2772.19 3716058 3889704 4032864 4174808 4372980 4589706
2777.97 4716452 4752010 4806072 4914174 5012654 5090030
2783.76 5191220 5323476 5450498 5563514 5692346 5811110
2789.54 5885164 5943414 6012642 6112450 6239536 6389692
2795.33 6551290 6691950 6737776 6670666 6600698 6607866
2801.12 6656920 6689954 6697932 6706690 6749642 6770002
2806.90 6730456 6704152 6705934 6700476 6703984 6735634
2812.69 6789656 6855448 6897116 6924220 6968542 7029618
2818.47 7127992 7301746 7499384 7659636 7837192 8084246
2824.26 8363186 8654554 8962082 9289320 9642222 10039340
2830.04 10503220 11014870 11531350 12025830 12496410 12988920
2835.83 13505990 13985290 14426140 14869300 15310860 15706840
2841.61 16050500 16383050 16694280 16985420 17276670 17547860
2847.40 17805530 18080180 18369550 18653750 18925570 19180950
2853.18 19391210 19564450 19768260 19971040 20105100 20192800
2858.97 20284940 20442270 20702870 21047510 21360060 21467900
2864.76 21361310 21195340 21082740 20996400 20834050 20599620
2870.54 20381510 20182710 19964830 19757110 19567120 19387950
2876.33 19248340 19125000 18998120 18882940 18790440 18724060
2882.11 18692550 18706900 18768210 18868520 19005170 19183370
2887.90 19395200 19681460 20118970 20705450 21270740 21686970
2893.68 22069380 22591090 23318780 24196730 25149450 26144440
2899.47 27220920 28419670 29729910 31168530 32783170 34568300
2905.25 36478740 38487260 40578900 42851660 45434950 48168090
2911.04 50862480 53574570 56332660 59105460 61929290 64758740
2916.82 67428400 69799810 71824450 73544990 75101120 76587200
2922.61 78005900 79282150 80295000 81086880 81922980 82989830
2928.40 83822320 83802690 83295420 82894410 82948140 84000540
2934.18 86344420 89582330 92950950 95883510 98332040 100621500
2939.97 103010300 105030800 106170600 106880700 107608400 108263000
2945.75 108643300 108569200 108010800 107031400 105721600 104178600
2951.54 102542500 100840900 98978880 97078900 95398080 93810050
2957.32 91877090 89550600 87406260 86087980 85786720 86622550
2963.11 89210540 94521180 103813200 118985300 147689800 199344900
2968.89 244030900 234898100 189509700 148436200 120912800 104119400
2974.68 94463260 88967550 85700710 83865800 83414110 83994320
2980.46 85211480 87082890 89443540 91863390 94122580 96262620
2986.25 98208060 99949010 101594500 103206500 104781600 106395900
2992.04 108130100 110043500 112119900 114210400 116242900 118315300
2997.82 120386500 122339800 124070700 125506500 126621800 127426000
3003.61 127829700 127784200 127457500 126903800 126044500 125016100
3009.39 124068900 123696500 124367100 126405300 129859700 134042200
3015.18 137803000 137186200 129768200 122623900 120869700 121931300
3020.96 123338100 124420700 125254600 125893800 126272300 126337200
3026.75 125853800 124570400 122394400 119356700 115529400 110990200
3032.53 105950300 100738400 95578740 90531450 85583700 80757560
3038.32 76139140 71765990 67681630 64140670 61372240 59232220
3044.10 57436940 55820930 54317180 52954850 51786600 50785700
3049.89 49948100 49301340 48849100 48567710 48337310 48038800
3055.67 47660080 47242400 46831030 46437540 46061200 45750520
3061.46 45536870 45400070 45315510 45178450 44934200 44694880
3067.25 44538640 44415770 44231100 43981820 43718140 43429690
3073.03 43042320 42539520 41994280 41468870 41000490 40595520
3078.82 40168830 39699380 39222170 38727390 38140460 37466400
3084.60 36805890 36207750 35657980 35114340 34517780 33831650
3090.39 32988780 31976860 30912580 29898710 28939200 28005890
3096.17 27150760 26430510 25797880 25164240 24486760 23755010
3101.96 22995360 22212750 21404090 20614450 19834760 19070870
3107.74 18352820 17631310 16880910 16174440 15519270 14829550
3113.53 14121930 13473740 12875350 12318820 11765130 11208500
3119.31 10741230 10345540 9928142 9496108 9089630 8726830
3125.10 8392644 8085346 7783808 7474742 7213660 7004958
3130.89 6788488 6543126 6317162 6141552 5983210 5865836
3136.67 5751110 5592228 5490448 5416220 5250812 5081082
3142.46 4972876 4888160 4803466 4734862 4702220 4683500
3148.24 4671950 4645694 4560372 4495420 4474976 4381990
3154.03 4257616 4201248 4197490 4176690 4111192 4049068
3159.81 3984354 3935112 3935586 3923462 3888748 3853434
3165.60 3798418 3759978 3747934 3727890 3689152 3636178
3171.38 3568304 3491780 3444994 3448714 3459628 3445572
3177.17 3400820 3319320 3217316 3151188 3128048 3108278
3182.95 3069100 3002934 2925798 2851370 2792174 2754892
3188.74 2700164 2645552 2601852 2538334 2496012 2471082
3194.53 2429588 2376832 2332364 2304220 2256652 2195446
3200.31 2146290 2104434 2051242 1998702 1966710 1943448
3206.10 1921580 1890372 1850932 1835782 1819440 1785042
3211.88 1747206 1708008 1684300 1669964 1639072 1596708
3217.67 1580280 1588690 1574930 1548614 1519672 1482730
3223.45 1493272 1506492 1452938 1389778 1380728 1408610
3229.24 1429320 1427756 1396824 1328910 1291610 1307824
3235.02 1324708 1333602 1343630 1329664 1288434 1265404
3240.81 1242368 1221750 1240206 1252106 1211064 1170504
3246.59 1159642 1146630 1137442 1163472 1173886 1173880
3252.38 1207094 1201532 1143448 1120696 1125768 1112582
3258.17 1083238 1063792 1072582 1073628 1043336 1025412
3263.95 1023810 1006694 988428 968326 952618 933904
3269.74 920272 963950 1013976 994622 965372 975266
3275.52 998776 1002784 978292 957302 987460 1021384
3281.31 1016422 1005256 988392 975068 997996 1041708
3287.09 1085136 1074506 1029890 1052428 1092858 1055704
3292.88 1005640 1000280 993636 989050 1004308 1035130
3298.66 1076714 1090968 1037076 964654 934766 951788
3304.45 982416 997100 1015736 1055176 1094466 1089294
3310.23 1042580 976752 922802 931220 962502 974892
3316.02 986204 986820 956672 916582 882042 869360
3321.80 866166 854748 855340 864204 870644 869120
3327.59 815534 738738 703576 720610 727384 697186
3333.38 685398 683580 659108 617862 602296 637048
3339.16 659136 628842 589854 587068 594760 565426
3344.95 544472 586980 639952 640686 579976 530296
3350.73 552240 598256 631908 628154 604208 605690
3356.52 623362 653138 653696 614484 612224 653262
3362.30 699978 744954 742284 708096 711836 723138
3368.09 733702 804984 881036 922262 961338 1008302
3373.87 1051560 1079198 1098384 1158520 1227788 1228790
3379.66 1232994 1290686 1350314 1398838 1396738 1362760
3385.44 1384282 1411070 1392216 1374354 1393364 1449392
3391.23 1514030 1510232 1437248 1389394 1414558 1482138
3397.02 1523060 1491552 1448806 1485112 1551950 1576870
3402.80 1576770 1582284 1598978 1645500 1704990 1751808
3408.59 1835198 1948358 2028552 2130392 2294560 2476778
3414.37 2661508 2859272 3083162 3338196 3647648 4015546
3420.16 4392326 4796524 5261580 5760608 6272418 6843854
3425.94 7488010 8163984 8876282 9623334 10378790 11124530
3431.73 11908890 12755000 13563080 14295820 14996250 15695610
3437.51 16379350 17016290 17595100 18161330 18762710 19331380
3443.30 19823060 20310850 20842810 21333180 21611750 21640780
3449.08 21632010 21976400 22830150 24004070 25089370 25680580
3454.87 25752500 25579640 25335890 25111980 24981250 24914330
3460.66 24870760 24836490 24734950 24522650 24224560 23857590
3466.44 23394440 22851370 22277120 21670670 21042400 20370770
3472.23 19631050 18887540 18132420 17328660 16526990 15724340
3478.01 14936420 14211960 13514560 12808480 12115030 11427580
3483.80 10728040 10057690 9433606 8854986 8392056 8080462
3489.58 7835344 7542140 7208222 6941450 6764860 6557406
3495.37 6251866 5898748 5574342 5337088 5146882 4947076
3501.15 4757032 4558424 4288392 3980416 3716182 3491698
3506.94 3286946 3097962 2879610 2683392 2535958 2370610
3512.72 2189904 2023282 1865644 1716204 1612792 1548868
3518.51 1469826 1355612 1263298 1218394 1191470 1134804
3524.30 1068356 1022876 976890 915122 841326 769344
3530.08 691308 597368 520354 464326 453094 482170
3535.87 467264 400930 339150 275728 204506 202904
3541.65 280644 324094 315396 292964 313708 305784
3547.44 200388 136236 170324 262666 339960 294902
3553.22 179766 127578 153872 194146 203512 193312
3559.01 190750 179210 168918 186804 227154 333644
3564.79 533634 664994 654724 456438 182812 75436
3570.58 19992-61110-100178-99110-90908-74390
3576.36-98502-121460-57422-33562-100420-139688
3582.15-142792-117202 39060 335496 488656 556600
3587.94 506516 143902-93098-33454 92794 104316
3593.72 123274 167262 83204 21504 55730 95276
3599.51 135478 120042 47196-4618-15274 51386
3605.29 209446 328746 575748 866420 580192 260858
3611.08 490072 608524 453004 326860 215666 291844
3616.86 525150 807300 927110 597090 248840 138412
3622.65 105162 88010 143838 346578 963514 1833826
3628.43 2045208 1257266 407916 188130 314720 336616
3634.22 193114 124050 169660 220354 199602 148036
3640.00 140638 179624 199080 189520 260136 557648
3645.79 1006130 1352328 1818560 2003972 1590604 1045056
3651.57 508330 251292 395138 954954 1256260 759116
3657.36 284818 208168 216876 231606 229728 228406
3663.15 232452 248410 295730 429196 778142 1234964
3668.93 1911500 2201230 1317514 615524 1023682 2138280
3674.72 2772256 1986558 909004 668034 726670 598722
3680.50 424256 365874 391328 422246 407134 541294
3686.29 1438134 2539312 2131676 1289354 1222760 988886
3692.07 614418 510862 517490 523182 507554 493718
3697.86 496454 551644 822068 1081810 890706 585926
3703.64 510318 535218 542062 617074 964528 1246958
3709.43 1270744 1792422 2142188 1427630 777852 651100
3715.21 626518 650518 747372 802806 726712 780428
3721.00 973718 958550 862470 935514 1093982 1120306
3726.79 901926 744808 774270 1130002 1814586 1930528
3732.57 1584620 1748622 2112176 2261326 1876622 1299090
3738.36 1027816 997698 1045168 1167094 2331398 4318260
3744.14 4154588 2141416 1214090 1811084 3069278 3092720
3749.93 2637634 3350546 3044612 1637448 1075324 1193072
3755.71 1265120 1145934 1250166 1503162 1356756 1054360
3761.50 969598 982578 1139862 1397024 1346290 1104408
3767.28 1175762 1612946 1789880 1423386 1121340 1048690
3773.07 1032742 1012144 1022746 1106112 1301998 1587568
3778.85 1633830 1404140 1282236 1279890 1359860 1462426
3784.64 1424168 1334320 1311608 1318888 1353826 1387072
3790.43 1389860 1368134 1368684 1443834 1698666 1984042
3796.21 1932692 1724850 1772438 2544434 3775006 3675520
3802.00 2535106 1947464 1921126 2501278 3190318 2768168
3807.78 1933360 1661712 1604422 1610022 1663742 1712852
3813.57 2224910 3459264 3663838 2478818 1836010 2084130
3819.35 2789666 3242616 2760868 1991448 1676092 1661258
3825.14 1791968 1842890 1677766 1533276 1599970 1934902
3830.92 2077976 1791544 1793884 2064454 2018000 2569350
3836.71 3576604 3058950 2005746 1812780 1676416 1510462
3842.49 1585468 1450586 1140356 1010624 1011336 1061472
3848.28 1112232 1321772 2235204 3227596 4095268 4877068
3854.07 3589320 1671356 1158050 1062214 903706 912750
3859.85 1138460 1294774 1175468 1306696 1760764 1645560
3865.64 1069492 917046 1462036 2267392 2159062 1287222
3871.42 899500 1091700 1242298 1010006 748184 681800
3877.21 734510 1021730 1351708 1230734 926508 863000
3882.99 1046544 1661454 1981172 1367188 814482 744676
3888.78 972620 1508772 1672680 1234634 948932 886786
3894.56 844254 870000 1029004 1428666 1697142 1586820
3900.35 1710300 1816294 1836422 1979630 1735424 1378086
3906.13 1196822 1110552 1098140 1111270 1147110 1187212
3911.92 1226490 1273368 1317118 1457648 1704562 1706324
3917.70 1563394 1606472 1570522 1427040 1422358 1521712
3923.49 1636350 1608456 1437400 1388552 1476428 1531416
3929.28 1525940 1592040 1707842 1663744 1571514 1561800
3935.06 1511884 1443504 1455666 1490966 1495646 1503254
3940.85 1573816 1640278 1589434 1527130 1519504 1545136
3946.63 1564788 1557488 1584702 1572750 1497902 1452576
3952.42 1449464 1489978 1512536 1501746 1527128 1569360
3958.20 1596352 1625474 1669780 1695800 1675156 1685688
3963.99 1744004 1782960 1810468 1869084 1946458 1997198
3969.77 2040186 2132370 2211558 2260798 2347284
##END=
