##TITLE=Acetone
##JCAMP-DX=4.24
##DATA TYPE=INFRARED SPECTRUM
##CLASS=IUPAC A
##ORIGIN=NIST, Anayltical Chemistry Division, 301-975-3108
##OWNER=COPYRIGHT (C) 1998 by the U.S. Secretary of Commerce
##DATE=98/10/1
##$SPECTRA VERSION=1.00
##$UNCERTAINTY IN Y=2.3 % relative (B=1.3E-04,C=1.7E-09,D=2.7E-14)
##CAS NAME=2-Propanone
##CAS REGISTRY NO=67-64-1
##MOLFORM=C H3 C O C H3
##MP=-95.35 C
##BP=56.2 C
##$NIST SOURCE=QUANT-IR
##SPECTROMETER/DATA SYSTEM=IFS66V (Bruker)
##INSTRUMENT PARAMETERS=KBr Beam splitter; MCT Detector; Multipass cell
##STATE=gas
##SAMPLE DESCRIPTION=Acetone Primary Gas Standard
##PRESSURE=101.3 kPa
##TEMPERATURE=23 C
##SAMPLING PROCEDURE=1 L/min Flow
##RESOLUTION=0.9640
##DATA PROCESSING=Happ Genzel Apodization
##XUNITS=cm-1
##YUNITS=(micromol/mol)-1m-1 (base 10)
##XFACTOR=1.0
##YFACTOR=4.5474E-13
##DELTAX=0.4820
##FIRSTX=575.169
##LASTX=3975.077
##FIRSTY=2.13E-07
##MAXX=3974.59
##MINX=575.17
##MAXY=.0005183
##MINY=-1.91E-07
##NPOINTS=7053
##XYDATA=(X++(Y..Y))
575.17 469610 275690 21992 358938 597688 445938
577.58 664324 663078 97318 456854 604334 591980
580.47 307884-225588-76294 512938 467468 401572
583.37 301732 92510 410552 1058962 1024664 608680
586.26 509492 195928 166650 364642-96042-275932
589.15-113606 26198 28874 384680 717732 578672
592.04 482802 624512 546172 477090 239180-18876
594.94 188212 368540 302584 150294-42594 108430
597.83 93096 207948 203344 103710 247122 268358
600.72 146610 192820 146074 81702 380712 335386
603.61 96146 22542-115654 80042 180274 106432
606.51 259810 194160 30144-133208-117694 68738
609.40 77348 50634 35106 251690 394306 283378
612.29 225398 403848 299458 191344 251362 284680
615.18 129194 108368 170870 129886-13160-50214
618.08-81174-38686-18172-37860-56766 49872
620.97 132694 208900 79900 156714 81648-52616
623.86-19506-94848 11270-16210-160736-22262
626.76 30808-115354-115760-65620-82136-91522
629.65-95704-127686 43720 177802 50616-682
632.54-47746-105522-110340-253524-412000-246626
635.43-63244-5374 7928 44232-104422-218454
638.33-227800-166350-36588 173576 57668-109726
641.22-195378-290316-233102-135662-176978-16320
644.11 43472-76570-188064-137088-103352-142340
647.00-126374-80134-72410-229764-420418-285436
649.90-80644-43438-203778-16586 128058-12454
652.79-98206-102574-327624-351010-295850-272242
655.68-209012-98166-73710-187166-143782-74498
658.58-172966-110436-96360-56806-132164-212724
661.47-144806-134276-212858-310506-375382-286604
664.36-219584-214394-193812-144354-157678 172376
667.25 610654 370770 51888 66644 5248-81082
670.15-213248-146326-64924-160578-81288 13964
673.04-78548 11106-102410-281172-153262-31868
675.93-178142-164304-52038-78354-117744-112168
678.82-187884-90792-55528-34816-78900-148522
681.72-149616-36778-59952-175728-111736-32652
684.61-100120-56856-6788-40914-90760-149418
687.50-131484-105158-94238-9198 30460-12138
690.40-14782-27572-135596-54692 60290 5710
693.29-69916-72780-21530 63758-19874-77596
696.18-158838-56890-40672 52678 124226-41668
699.07-153486-24464 107050 156612 165700 121396
701.97-4384-27404-58190 12202 84012 133804
704.86 160430 59764-14114 62648 73672 50102
707.75 46914 109798 98906 163010 252150 215496
710.64 187514 238522 185476 237850 214672 179510
713.54 146202 178158 271698 299224 301286 252598
716.43 195746 240954 234520 322066 463688 490082
719.32 380360 476050 560644 504292 469204 479320
722.22 569898 685232 656710 478434 490186 645892
725.11 777972 914526 897878 806766 784974 795580
728.00 820946 948928 975736 980736 1022010 1108150
730.89 1111018 1083306 1171608 1248300 1306132 1408544
733.79 1433494 1427868 1562882 1678410 1658290 1683702
736.68 1728858 1804136 1883772 1956162 2040038 2094562
739.57 2184634 2279666 2403810 2481954 2546052 2756272
742.46 2862302 2946702 3092540 3157090 3172204 3343024
745.36 3486628 3656328 3842916 3980290 4158160 4345014
748.25 4499620 4630594 4852602 5054614 5164798 5374614
751.14 5567856 5802040 6084544 6293034 6520192 6754322
754.04 6992362 7227606 7511518 7779454 7978162 8204672
756.93 8387912 8666516 8967746 9164104 9380478 9635244
759.82 9826834 10015240 10259570 10531360 10869630 11209050
762.71 11422530 11616870 11735590 11876210 11957160 11978070
765.61 12082770 12381320 12536690 12552920 12584140 12681340
768.50 12834310 13019610 13131640 13282150 13401370 13444790
771.39 13335090 13326200 13294820 13152260 13001010 12939930
774.28 12903610 12766230 12673720 12632430 12671830 12994910
777.18 13405800 13683150 13797200 13705670 13600170 13434690
780.07 13256560 13053050 12802650 12634820 12557790 12593320
782.96 12821540 13212350 13660900 13977870 14180180 14324090
785.86 14083890 13868520 13781210 13550560 13276210 13089250
788.75 12882200 12742570 12561290 12434910 12269850 12010880
791.64 11742950 11618550 11461450 11190120 10935920 10568780
794.53 10188680 9932706 9767700 9483514 9132866 8684818
797.43 8192718 7897624 7622634 7211396 6753910 6426922
800.32 6063518 5619820 5208558 4856108 4677190 4509300
803.21 4151210 3886638 3756392 3488404 3272134 3106854
806.10 2979196 2784806 2560474 2459150 2330560 2310314
809.00 2270994 2254634 2150202 1982914 1767122 1568664
811.89 1446470 1394290 1285348 1181166 1097176 1108862
814.78 1103566 1062550 983754 905730 866510 922118
817.68 965218 967672 936728 861276 805356 712102
820.57 707290 832032 911036 907414 830430 762208
823.46 726584 789156 761324 763938 889022 987494
826.35 895468 880554 878748 917576 886696 897166
829.25 810338 765764 917370 961618 887080 924848
832.14 1029532 1175946 1174064 1125266 1076786 1080002
835.03 1084922 1202722 1214322 1232676 1274418 1341040
837.92 1393556 1462668 1411974 1396346 1443612 1530370
840.82 1598150 1540898 1533876 1642252 1677216 1665990
843.71 1665838 1727238 1768872 1803998 1867424 1979030
846.60 2003650 2074830 2180072 2214662 2274290 2394896
849.50 2483032 2592870 2695772 2751182 2799900 2884046
852.39 3000618 3206518 3354102 3475610 3587308 3755526
855.28 3875794 4020114 4253714 4572110 4886542 5084114
858.17 5233248 5502996 5795160 6061056 6341940 6727818
861.07 7105856 7526820 7937946 8313420 8746324 9280510
863.96 9818414 10359900 10918510 11562210 12209190 12779410
866.85 13372250 14107880 14843240 15588170 16333980 17157580
869.74 17999620 18893220 19804230 20818710 21803260 22788940
872.64 23760040 24656180 25569820 26502810 27482240 28396150
875.53 29213540 29935360 30165490 30314960 30374900 30077990
878.42 29615160 29355820 29408440 29748160 30161980 30749300
881.31 31435830 31919930 32190040 32525450 32744470 32791650
884.21 32828100 33321040 35257120 39942810 44434670 45027460
887.10 43352870 41793750 41482640 42132530 43267860 43975450
889.99 43592420 42320580 41230560 40745450 40779940 41551300
892.89 43706430 48159470 53005480 54451490 52694450 50945840
895.78 50079820 49696180 49603760 50125460 50807940 51292700
898.67 51341230 51422500 51603310 51572100 51057600 50489880
901.56 50038260 49633340 49394530 49254590 49140980 48979330
904.46 48704280 48504160 48411850 48232640 47931360 47640480
907.35 47184730 46606520 46146510 45721160 45155660 44551800
910.24 43921490 43340880 42667700 41984810 41382450 40696970
913.13 39970230 39260580 38494200 37699930 36821390 35974940
916.03 35164870 34436940 33751580 33040950 32354330 31622820
918.92 30894290 30286100 29648210 29095170 28483710 27927400
921.81 27439920 26951260 26432530 25847130 25200560 24700300
924.71 24215630 23732440 23200280 22686880 22237080 21816980
927.60 21360460 20889520 20469770 20091460 19616580 19157320
930.49 18703950 18267920 17862070 17415230 16968970 16599580
933.38 16205740 15878480 15539120 15208960 14841040 14471880
936.28 14071890 13718360 13358390 13091430 12828850 12483120
939.17 12147520 11886160 11555800 11272330 11117330 10974570
942.06 10788700 10542500 10360670 10194030 10002060 9853462
944.95 9693298 9582306 9463468 9369996 9262246 9119760
947.85 8980562 8928278 8854356 8827174 8793292 8720452
950.74 8645736 8583348 8527526 8448826 8414076 8415674
953.63 8352364 8312580 8270894 8248946 8183342 8186618
956.53 8221412 8235810 8259318 8305352 8256830 8187944
959.42 8171300 8196608 8133918 8078224 7999442 8021532
962.31 7999236 7915252 7877860 7845720 7726424 7637896
965.20 7535580 7468502 7419732 7462496 7579756 7755756
968.10 8014352 8192796 7801102 7450888 7382628 7389836
970.99 7332086 7287962 7230564 7190316 7133092 7119756
973.88 7098300 7080086 7004122 6968688 6923116 6895990
976.77 6867908 6899934 6929376 6931248 6875202 6859464
979.67 6827060 6814190 6796062 6794168 6701738 6642670
982.56 6609558 6557228 6497104 6435182 6373232 6308628
985.45 6232026 6223434 6225538 6242304 6230624 6210358
988.35 6148038 6136712 6036236 5872462 5768008 5737804
991.24 5601426 5511970 5409154 5308858 5168420 5083554
994.13 5025006 4999994 4928096 4889546 4824904 4794746
997.02 4718706 4660848 4670792 4761036 4769914 4784850
999.92 4811928 4771946 4613026 4450472 4359942 4264380
1002.81 4114528 4077018 4045718 3967830 3889552 3935024
1005.70 3893150 3858522 3899766 3954804 3930088 3916224
1008.59 3868726 3835210 3843082 3911078 3917336 3999900
1011.49 4080230 4034984 3871664 3854062 3852752 3870916
1014.38 3886488 3848470 3783724 3747512 3730646 3735682
1017.27 3678404 3619494 3598380 3747088 3918254 3888860
1020.17 3640912 3528100 3501180 3505336 3477078 3501872
1023.06 3489708 3553514 3556692 3509916 3489136 3554510
1025.95 3524562 3559666 3532800 3562868 3581034 3583558
1028.84 3564482 3633064 3657392 3706346 3777810 3802820
1031.74 3755290 3764342 3769878 3855870 3908042 3935986
1034.63 3949318 4016752 4055840 4195884 4251954 4282288
1037.52 4320664 4371288 4371512 4376624 4340044 4410918
1040.41 4537786 4655762 4623088 4610922 4628356 4720444
1043.31 4788710 4805618 4800812 4866172 4896030 4951572
1046.20 4980296 4995602 5014390 5110098 5106602 5161922
1049.09 5180744 5271096 5334286 5316764 5295410 5365574
1051.99 5383910 5375948 5369488 5486246 5511054 5551830
1054.88 5545354 5609544 5628616 5705834 5761848 5871086
1057.77 5942306 6033720 6080938 6208096 6287508 6399628
1060.66 6490752 6660680 6731330 6815450 6859270 7014166
1063.56 7152334 7292550 7380612 7540944 7700686 7934794
1066.45 8073296 8296770 8397806 8589924 8766196 8971486
1069.34 9118502 9361048 9537768 9767240 9920012 10160110
1072.23 10320600 10494760 10604310 10883830 11103930 11288030
1075.13 11390140 11661430 11784390 12017510 12238960 12462330
1078.02 12639300 12957160 13002620 12988640 12993190 13223710
1080.91 13463590 13674820 13587080 13789650 13948620 14257280
1083.81 14522920 14958600 15264750 15798310 16269620 17131140
1086.70 18156560 19401180 20288330 21866830 23901070 26847870
1089.59 29530660 33399220 42951340 59966360 59430930 41064670
1092.48 31370730 29881440 35258600 46032740 41387270 26842700
1095.38 22012840 21162780 21057400 20656450 20467400 20105580
1098.27 20075280 19895280 20048080 20091530 20327220 20462480
1101.16 20790720 21016640 21342980 21539530 21818340 22004140
1104.05 22319300 22527150 22775760 22947560 23138120 23195330
1106.95 23330030 23316540 23403390 23446490 23544080 23547360
1109.84 23528270 23448710 23453150 23331790 23192590 23016660
1112.73 22886460 22642890 22402000 22182330 21952860 21551600
1115.63 21202370 20833230 20496280 20096470 19767480 19362450
1118.52 18953230 18475340 18062010 17621930 17271160 16912170
1121.41 16554720 16123070 15689180 15265290 14862050 14430550
1124.30 14031190 13662480 13350850 12962680 12607950 12245670
1127.20 11955660 11625600 11326930 10990160 10672800 10347000
1130.09 10104430 9863542 9636276 9393438 9123710 8842860
1132.98 8657938 8463790 8259808 8016712 7857060 7745552
1135.87 7646904 7448432 7292330 7163546 7022564 6868802
1138.77 6715126 6585902 6539704 6405604 6294948 6193426
1141.66 6129756 6054828 6007814 5970610 5924454 5848164
1144.55 5753104 5626594 5528434 5463940 5435690 5351520
1147.45 5293040 5270088 5221864 5203712 5219070 5225470
1150.34 5286916 5227794 5188426 5241868 5299980 5296972
1153.23 5286178 5313514 5427306 5438938 5475158 5567144
1156.12 5591734 5598200 5685480 5837052 6001868 6113346
1159.02 6240360 6327416 6466506 6624270 6772340 6965938
1161.91 7138554 7327362 7589622 7791872 8001638 8319358
1164.80 8625614 8940740 9252794 9583342 9971180 10330900
1167.69 10750420 11201220 11641870 12126590 12638980 13155590
1170.59 13696880 14302510 14986270 15635730 16329780 17057990
1173.48 17883990 18745050 19602660 20510170 21484200 22509350
1176.37 23637470 24896600 26219070 27559370 29042790 30668010
1179.26 32444250 34313590 36352680 38584370 41013360 43651680
1182.16 46524610 49631460 53069290 56804240 60878830 65369300
1185.05 70276810 75576140 81324840 87575830 94443970 101892400
1187.94 109810100 118409800 127849000 138007600 148759600 160022500
1190.84 171343600 182409400 194399000 207803900 221421800 235096700
1193.73 248703000 262675800 278185500 294727800 311955700 329394700
1196.62 346991400 365005100 382912500 400253600 417589000 434708500
1199.51 451320200 466987300 481718300 495543900 508406300 520663300
1202.41 532171600 542805400 551996600 560179600 567277200 572371000
1205.30 574295900 572009700 567811600 563819800 560115800 555594700
1208.19 550084900 543830600 537786600 532579700 529433700 528287100
1211.08 528923700 531030900 535411100 545068900 562487800 587631700
1213.98 621102500 660868100 704824900 752701100 802023200 839147600
1216.87 856660900 843592700 785122600 703636600 657818500 607988400
1219.76 485104400 408744100 406038000 421240700 440801100 462400200
1222.66 484097300 504811000 524364300 543063400 560596000 576778900
1225.55 591648800 605014000 616986900 626458300 633327700 638462600
1228.44 640334800 638469800 632998200 624245300 612286800 598085200
1231.33 582106000 565046200 545844900 523853900 500528600 476562800
1234.23 451082400 424982900 399257100 373261500 346795600 321164200
1237.12 296280700 272238300 249161900 227406700 206884500 187816300
1240.01 169995800 153465600 138172300 124236600 111612000 100235800
1242.90 90013600 80932780 72643530 65381000 58842960 53062140
1245.80 47849800 43357640 39362760 35881560 32744310 30103670
1248.69 27678410 25581490 23671800 22021820 20533950 19261360
1251.58 18089640 17134660 16155420 15294040 14495630 13875190
1254.48 13212540 12639600 12075690 11623880 11170090 10770180
1257.37 10355960 10033420 9706910 9392570 9075072 8903662
1260.26 8606614 8383944 8218968 8039568 7825964 7750894
1263.15 7607038 7463486 7302976 7222714 7075900 7011900
1266.05 6908256 6894134 6778506 6689050 6643690 6660272
1268.94 6583644 6541966 6446908 6454638 6453114 6481840
1271.83 6380894 6355382 6316364 6348640 6360012 6406074
1274.72 6398466 6477822 6463140 6498566 6498442 6571492
1277.62 6618106 6694234 6711504 6775556 6808446 6907504
1280.51 6911070 7016896 7059014 7145024 7195506 7311850
1283.40 7372570 7492270 7571396 7678346 7790372 7999758
1286.30 8146974 8300098 8394646 8658726 8954128 9417886
1289.19 9956458 10411140 10074450 9558770 9413776 9561482
1292.08 9639516 9816016 9967502 10122330 10210240 10405870
1294.97 10537360 10777150 10971300 11201250 11374550 11648370
1297.87 11881590 12168180 12421380 12742630 12988330 13342680
1300.76 13634850 13964860 14272960 14689370 15020150 15354470
1303.65 15598490 15954020 16332220 16823960 17244660 17690360
1306.54 17996830 18365900 18796560 19358440 19801780 20334980
1309.44 20820820 21371970 21890180 22622280 23303630 23938710
1312.33 24380520 25030790 25790810 26684810 27495000 28407610
1315.22 29302070 30185140 30917790 31734400 32319350 33156720
1318.12 34172810 35260930 36180590 37357870 38504950 39781750
1321.01 41051870 42543460 43968600 45581520 47123250 48814300
1323.90 50507380 52434170 54237260 56240950 58208380 60397920
1326.79 62661790 65190330 67773900 70639450 73526540 76742420
1329.69 80106480 83714120 87330490 91278370 95265710 99694350
1332.58 104305100 109384200 114578800 120268800 126225800 132666700
1335.47 139256200 146373700 153705000 161524700 169614300 178345600
1338.36 187253900 196738800 206544600 217000600 227471700 238295400
1341.26 249499700 261464400 273586900 286098500 298662900 311705900
1344.15 324625000 337809400 351044200 364617900 377686400 390703600
1347.04 403645600 416911700 429912800 443032000 454647300 466198900
1349.94 477822000 489332300 499332600 508031600 514652200 519504200
1352.83 523098000 526613000 529754000 533217900 534060900 531868000
1355.72 527096800 522743500 517884700 513393100 509412800 507715800
1358.61 510259600 521510800 545191500 583047900 609557200 603794900
1361.51 584798600 578894700 583674000 593046100 605826000 640487100
1364.40 745957200 884456100 824480400 670754000 620823100 618938200
1367.29 626744700 637525800 650847600 657764300 657307900 651529700
1370.18 646115900 641422600 639536000 637353200 634867800 630569200
1373.08 626324400 621487600 616970800 611782700 606114900 599530800
1375.97 592434600 584451300 575926100 566350300 556371800 545300400
1378.86 534635700 524288800 512764300 497809200 480335900 461705000
1381.76 443266000 424463500 406446700 388660500 371883600 355194700
1384.65 338868700 322603900 307232200 292123800 278251400 264864700
1387.54 251140500 238176300 226673400 215713200 205583600 196177500
1390.43 187720000 179680600 172391700 165637000 159694800 154157800
1393.33 149606800 146004200 141811600 137224200 133991200 130765500
1396.22 127959300 125696500 123956200 122061200 120905000 120243400
1399.11 118832900 117212200 116395200 115656600 115245600 114808800
1402.00 114652000 114485600 114591200 114676400 114992900 115222300
1404.90 115022800 114771700 115248200 115939800 117035400 118516100
1407.79 120484500 122902700 125728800 127835900 128149800 126216400
1410.68 124776300 125212000 127064100 129432900 132306500 135197900
1413.58 137945200 140096500 141831300 143021900 143966900 144704000
1416.47 146105000 147694400 148800900 150231400 153196000 156384800
1419.36 156643600 156349200 157847900 159531800 161266400 162767900
1422.25 164190800 165081000 166047900 166584600 166750100 166772300
1425.15 166991300 167097500 167230600 167147900 167003400 166440100
1428.04 165708100 164827600 164402800 163805300 162745000 162236500
1430.93 163373100 165861600 169490500 173466800 177724900 182197000
1433.82 185615700 185412700 184519200 183254600 180211600 177755600
1436.72 174603000 172634000 173176700 174198400 175931300 178398000
1439.61 180559800 180932800 179814900 177524500 175442100 173625200
1442.50 172155000 170475900 169172900 168297000 168071700 168384400
1445.40 169372400 169160100 168479500 169866400 173191000 173246800
1448.29 171199200 168636900 164742500 160032400 156140100 152587900
1451.18 149248200 145558700 142494700 140933200 142926300 155538300
1454.07 184702300 192474100 164894400 144515900 139390600 136091800
1456.97 129770900 126743000 125261800 123423600 121743700 120112100
1459.86 118645600 117584600 116527200 115392100 113665700 111683300
1462.75 109666500 107906000 106601700 106168200 104330000 101501700
1465.64 99633400 98050240 96466010 95011460 93610730 92185050
1468.54 90892140 89854140 89008980 88131070 87395390 87734580
1471.43 89164460 88925460 88558090 89363550 86871740 82689260
1474.32 79890470 78083080 77181020 76539530 74903190 73405220
1477.21 72346300 71119750 69709900 68013980 65989460 63718120
1480.11 61669140 60105350 58641380 57187750 56010920 55077630
1483.00 54550770 54368070 53693770 52424930 50928240 49472940
1485.89 48530180 48155280 48069640 46941260 45938820 45594620
1488.79 45509540 45348150 44709670 44318420 43433980 42342290
1491.68 41900300 41474010 41145190 40789660 40524960 40174660
1494.57 39973860 40349430 42347820 42028160 39624260 38828460
1497.46 38693020 39337820 39678180 38574550 37859250 37713570
1500.36 37571820 37486300 37444490 37210530 37010560 36862050
1503.25 36724120 36596300 36728200 38707720 40358190 38426440
1506.14 39414390 41158950 39252830 39515620 41538860 40352260
1509.03 38256010 37078020 36210250 35814620 35702510 36280580
1511.93 36587910 35801930 35457110 35523340 35696710 35977770
1514.82 35823170 35538530 35953140 36432070 36878880 36520310
1517.71 35544610 35205070 35277210 35897530 36873610 37716040
1520.61 40359360 39935800 37406490 37608290 37105160 36247060
1523.50 36096240 36449080 37332150 38557910 37911310 37065120
1526.39 37109740 37123870 36547660 36446040 36244330 35703890
1529.28 35444700 35397660 35388650 35525770 35624540 35478070
1532.18 35701240 36420120 36980370 36691520 35372690 35031290
1535.07 35045100 35080610 35064490 35204810 35053360 35215450
1537.96 36740920 39928900 38714580 37503470 38126540 35820120
1540.85 35033620 36949890 37120560 34890090 34358260 34138720
1543.75 33872600 34471530 35206170 34099630 33188100 32947320
1546.64 32891760 32844880 32951080 33201940 33684090 33929360
1549.53 33576130 32686330 31921490 31661350 31578400 31582000
1552.43 31558360 31684970 32916480 34194210 32416860 30951750
1555.32 30583540 30490500 30727880 32219050 33140860 34789790
1558.21 35074660 32189410 33047190 35038130 32716520 29557170
1561.10 29061030 28888620 28943900 28779000 28660200 28329240
1564.00 28517270 28431070 27799840 27215000 26983030 26702910
1566.89 26568820 26309110 26325990 26468060 27148620 27679900
1569.78 26384650 25132910 24817550 24427520 24179680 23803300
1572.67 23545120 23183280 22998850 22712740 22669570 24136400
1575.57 27473060 25705980 22190690 21363890 21057570 20742400
1578.46 20507930 20302090 20082870 19882720 19703470 19515130
1581.35 19334140 19113410 18912370 18672080 18489060 18319230
1584.25 18148550 17926100 17775430 17651980 17500350 17325580
1587.14 17173240 16959550 16826230 16628230 16441380 16247020
1590.03 16070270 15864060 15655060 15357130 15156990 14961190
1592.92 14807420 14624220 14523800 14269120 13994730 13772290
1595.82 13642200 13395030 13161260 12922450 12763310 12579340
1598.71 12415650 12232210 12077770 11875560 11756900 11556680
1601.60 11365990 11200310 11075550 10875340 10711200 10535160
1604.49 10400610 10236320 10125090 9986204 9961218 9835072
1607.39 9656314 9505152 9486940 9474656 9320954 9055118
1610.28 8946822 8743502 8666706 8575322 8503564 8353954
1613.17 8359450 8245084 8218280 8123526 8270162 9570324
1616.07 12812310 11868240 8637344 7856120 7696570 7645588
1618.96 7604648 7598386 7616818 7637036 7567670 7484428
1621.85 7507844 7808716 8887980 8978416 7765596 7385660
1624.74 7256660 7161368 7056222 7062420 7233204 7843184
1627.64 7681752 7119190 7011890 7018822 6977156 6980758
1630.53 6969398 6987378 6987122 7043364 7066414 7129262
1633.42 7202898 7752838 9184840 11331090 11254270 8541358
1636.31 7694556 8101332 8165394 7676198 7625344 7653338
1639.21 7803062 7893444 7961076 7958840 8109100 8209420
1642.10 8365398 8402828 8544214 8626308 8815136 9098818
1644.99 10898420 12902010 11375710 10193080 10792580 10771590
1647.89 10844490 10361920 10222470 10258400 10483250 10585660
1650.78 10983210 12501830 16422350 17866890 18353840 15951320
1653.67 13690750 13834440 12591090 12146560 12157300 12303630
1656.56 12365010 12557420 12598980 12740640 12813750 12994260
1659.46 13060930 13186020 13299630 13524500 13684560 14629970
1662.35 15460640 14603790 13913600 13988530 14106700 14333180
1665.24 14569380 15016260 15663050 16546540 17445570 18453440
1668.13 19241430 20868540 21118870 19636140 19285130 19888330
1671.03 20581960 20350140 20323880 20772710 21316550 21897050
1673.92 22843250 25120040 26718630 25654300 25084400 25568440
1676.81 26192890 26814720 27416980 28027550 28777120 29642440
1679.71 30436390 30994470 31361640 31955320 32690670 33922200
1682.60 35635830 36542200 37743150 41811410 43307110 39658180
1685.49 38796960 39596770 40719980 41792590 43245030 44611960
1688.38 45821940 47122980 48991140 50636990 52260230 54089760
1691.28 56228500 58259150 60442470 62573340 65013400 67516260
1694.17 70542600 74901810 82323600 86570020 86874620 90660370
1697.06 96589540 102875400 109681700 116943200 125642000 134331600
1699.95 140113500 144715600 149350200 156135700 164302900 173084000
1702.85 182515400 192922400 204350400 215454300 226684000 239592300
1705.74 253676500 267396200 281273500 296263100 312004200 328407800
1708.63 345412400 362858900 380742400 398835300 417093900 435710500
1711.53 454413200 473434300 492417400 511241500 529872100 548143600
1714.42 566842800 584605100 600663600 617357600 635706000 654980200
1717.31 668577600 680837800 694750600 707447700 719899100 732251500
1720.20 744288700 756135500 767481000 778382200 789265500 799554600
1723.10 809358300 818359700 826745700 834879600 842853700 850472400
1725.99 857575000 864032600 870969500 877741300 881300900 879467200
1728.88 874130500 867888000 861781500 857200400 855958100 859851300
1731.77 871678700 891103500 918252000 950572400 989218200 1027606000
1734.67 1056926000 1082020000 1102930000 1117274000 1125511000 1130427000
1737.56 1134250000 1137825000 1139841000 1139062000 1132296000 1119819000
1740.45 1106169000 1093719000 1084434000 1077175000 1068761000 1059091000
1743.34 1049903000 1041707000 1033578000 1024062000 1012667000 999665300
1746.24 985951500 972029300 958461700 946235000 934592400 922690400
1749.13 911355800 901812900 895211800 890786400 883048100 870497700
1752.02 856743400 842267300 826610900 809001500 789230900 768798500
1754.92 749753500 732232900 716056300 700533100 684622300 670483300
1757.81 658168600 646711000 635436300 624120200 612985900 602489900
1760.70 593477400 583225000 566217500 546834200 529633200 513011800
1763.59 496280400 479800600 464369400 449677700 435409200 421563300
1766.49 408139800 395131900 382954500 370387000 358603000 349426700
1769.38 341429400 333552100 324392900 313874900 303669700 296859200
1772.27 294193800 292105300 284207000 270775900 256750700 243001900
1775.16 230065200 218991500 211019500 205984100 203017500 200324100
1778.06 196104600 190649100 185322200 180762100 177007500 173265500
1780.95 169694400 166955100 164615700 162365600 160053100 157902100
1783.84 155869800 154075400 151861100 149789800 148269500 146653300
1786.74 144337800 140957600 136589700 131772400 126776500 122369500
1789.63 118984900 116738400 114968900 112882800 111544300 110970500
1792.52 108211800 104395500 101596300 98940850 96313080 93646500
1795.41 90929880 87996400 85183380 82534500 80014880 77644480
1798.31 75528030 73838510 72150740 70019780 68271750 66771200
1801.20 64942380 63151560 61474340 59482100 57749740 56110250
1804.09 54565860 53095920 51819760 50507960 49264210 48009040
1806.98 46812340 45428740 44082620 42802880 41564710 40399960
1809.88 39513700 38320380 36838790 35670990 34663620 33537840
1812.77 32442570 31407300 30433160 29463500 28566100 27703020
1815.66 26921160 26129860 25469980 24813220 24056880 23336390
1818.56 22700280 22112240 21531070 20954450 20433730 19896200
1821.45 19404290 18965160 18546770 18082990 17711290 17383130
1824.34 17537510 17549040 16618690 15900090 15546950 15223400
1827.23 14935440 14665550 14562800 14462750 14495590 14689140
1830.13 13865090 13043510 12723520 12449340 12231830 12006990
1833.02 11786680 11612210 11508020 11429120 11362330 11207700
1835.91 10985470 10815720 10675730 10417600 10233870 10050950
1838.80 9929496 9880506 9967520 9868008 9593584 9358706
1841.70 9318258 9184966 9056714 9525916 10701130 9787946
1844.59 8234506 7810616 7553508 7321512 7187516 7231200
1847.48 7095404 6770408 6553532 6395526 6255864 6108554
1850.38 5960222 5846006 5749178 5636260 5518088 5409706
1853.27 5325112 5253698 5192792 5091508 5008738 4928668
1856.16 4861966 4770122 4719634 4628212 4531332 4400814
1859.05 4322834 4264468 4209770 4143856 4096086 4013024
1861.95 3946432 3884918 3829996 3785536 3773774 3751780
1864.84 3722752 3732986 3786138 3666304 3663704 3896082
1867.73 3802368 3774248 4381676 4137084 3483138 3377226
1870.62 3338794 3255022 3210418 3203366 3193960 3158804
1873.52 3135668 3112142 3056380 3026780 3009976 2970836
1876.41 2925996 2890352 2859542 2837380 2810148 2772560
1879.30 2748772 2693278 2674036 2648954 2607670 2614646
1882.20 2610618 2545144 2505690 2499268 2514206 2487630
1885.09 2483514 2503648 2571798 2662226 2728116 2571770
1887.98 2393278 2428330 2703396 2506254 2130202 2049958
1890.87 2035338 2016224 1988750 1957252 1955774 1986568
1893.77 1971504 2018084 2100742 2000152 1922900 1884626
1896.66 1876016 1871622 1840790 1825170 1791696 1761266
1899.55 1762436 1753548 1714192 1682024 1645632 1597944
1902.44 1577672 1574480 1549240 1506062 1459256 1438308
1905.34 1410324 1370994 1340602 1313370 1354816 1327296
1908.23 1231246 1202868 1308864 1313578 1158282 1099244
1911.12 1077082 1064908 1033930 984910 965808 951488
1914.02 922400 894632 862948 876704 886982 903380
1916.91 1120874 1721960 1505978 918580 820368 780084
1919.80 779230 801918 833962 860130 956154 1038986
1922.69 1115754 959134 842042 808598 798368 787444
1925.59 815932 817510 813056 793862 782654 785688
1928.48 785522 774056 793246 805844 795416 784762
1931.37 784824 785842 804824 815862 834282 835320
1934.26 817232 832628 828448 815284 842466 870650
1937.16 875836 860120 874646 866212 842666 866682
1940.05 901376 903078 931010 1075362 1364104 1217840
1942.94 971232 941612 945278 987582 1029760 1043532
1945.84 1059292 1049020 1054118 1065564 1055428 1070306
1948.73 1121936 1138382 1135404 1162564 1171748 1195826
1951.62 1254596 1260446 1286180 1317698 1320084 1336352
1954.51 1382796 1386414 1373450 1401152 1446380 1479928
1957.41 1524164 1556282 1550900 1568694 1606712 1631884
1960.30 1677534 1704286 1734666 1747738 1756674 1789000
1963.19 1820770 1839950 1853868 1860228 1911810 2012674
1966.08 2049316 2142650 2222126 2131640 2142004 2184404
1968.98 2174864 2151852 2175540 2195706 2250488 2244094
1971.87 2230934 2284296 2334764 2365452 2404888 2405384
1974.76 2394594 2381380 2394028 2424334 2450536 2427380
1977.66 2423468 2475618 2528038 2528830 2509422 2518582
1980.55 2516648 2467734 2450046 2447988 2468202 2478772
1983.44 2460610 2428006 2449276 2456544 2497376 2517842
1986.33 2488632 2469750 2496816 2486128 2400776 2276018
1989.23 2240772 2205740 2204642 2279118 2494244 2549396
1992.12 2404382 2301976 2261250 2267734 2293646 2304006
1995.01 2216628 2045408 1987634 1988040 1950720 1935854
1997.90 1922668 1928442 1910086 1846934 1802762 1784144
2000.80 1773184 1727502 1685916 1676494 1664598 1609268
2003.69 1566320 1526344 1476234 1439060 1398256 1323194
2006.58 1254180 1215704 1173414 1109694 1066482 996660
2009.48 922226 879328 883220 828802 758182 715552
2012.37 680546 646912 607396 587368 569032 511312
2015.26 471484 491160 573516 521036 448284 454148
2018.15 428932 399084 395582 392738 383964 366932
2021.05 371924 372164 374808 354720 334290 305612
2023.94 319652 344912 350942 348886 354046 358456
2026.83 323916 305832 313192 329448 342182 325100
2029.72 335172 336116 329222 322394 302356 327498
2032.62 344338 312762 297958 335992 360108 369058
2035.51 375564 362102 347388 337112 349568 354720
2038.40 375174 382956 381126 370134 371812 394680
2041.29 409038 404214 412410 392518 377994 415794
2044.19 452040 472234 477132 444028 422434 425796
2047.08 452354 474054 467708 465230 492196 499760
2049.97 471254 474110 514282 525742 561946 564574
2052.87 555830 568604 564560 593030 631210 618036
2055.76 646172 650992 644154 622578 662976 719844
2058.65 735774 720614 738944 756904 768582 793378
2061.54 807080 819576 843848 863814 911882 958088
2064.44 984674 982496 994394 1003726 1030734 1036020
2067.33 1065624 1095160 1132794 1176494 1216866 1250484
2070.22 1286790 1321056 1374262 1403344 1430084 1437352
2073.11 1471450 1536602 1566492 1611014 1692704 1764912
2076.01 1808838 1845352 1899520 1962178 2043894 2139240
2078.90 2205158 2263210 2304934 2385658 2490490 2566640
2081.79 2660836 2762006 2864888 2967660 3072154 3165642
2084.69 3276408 3374104 3492630 3600518 3698724 3817250
2087.58 3947800 4068536 4192616 4309344 4430954 4527094
2090.47 4631990 4761970 4880656 4992020 5101772 5257686
2093.36 5366890 5401082 5482400 5585788 5706642 5814734
2096.26 5863860 5901762 6029514 6210084 6388162 6560224
2099.15 6690792 6779698 6863364 6851036 6794476 6759780
2102.04 6779878 6845718 6987882 7180484 7400044 7618646
2104.93 7856780 8097062 8293220 8450926 8571528 8638642
2107.83 8680446 8707434 8750656 8817382 8900710 9040540
2110.72 9244028 9467330 9674606 9857924 10014100 10173760
2113.61 10337870 10474520 10604280 10707580 10818730 10980070
2116.51 11136680 11264010 11407570 11526100 11622590 11707930
2119.40 11805210 11917460 12046560 12137600 12201840 12274280
2122.29 12350160 12445120 12508030 12535610 12586990 12615160
2125.18 12596650 12561090 12571820 12556020 12532820 12523460
2128.08 12542760 12548970 12539970 12515410 12491290 12495220
2130.97 12511770 12509650 12494090 12459870 12453040 12484830
2133.86 12539850 12602520 12627150 12622520 12490550 12227340
2136.75 12052180 11953700 11870760 11775690 11688440 11577750
2139.65 11509150 11495150 11500710 11535710 11611950 11649300
2142.54 11759040 12060550 12367570 12517740 12514000 12213160
2145.43 11595310 11044130 10727050 10544840 10447590 10351470
2148.33 10247360 10135600 10019070 9874714 9707612 9554462
2151.22 9411410 9293072 9182612 9001656 8783950 8578166
2154.11 8410806 8228486 8068162 7872844 7610540 7375800
2157.00 7158876 6905540 6689258 6479320 6257510 6007018
2159.90 5750256 5512750 5272852 5043000 4786074 4548566
2162.79 4382350 4210670 4004842 3782012 3620148 3492382
2165.68 3330164 3171210 3053702 2934298 2794818 2700336
2168.57 2625276 2530844 2435386 2334576 2234366 2137112
2171.47 2057060 2003180 1974110 1935860 1902734 1884556
2174.36 1854428 1804242 1762812 1744636 1689870 1647930
2177.25 1629982 1618732 1631140 1587782 1539926 1539478
2180.15 1494936 1425612 1432218 1452740 1386136 1285650
2183.04 1275538 1350464 1422278 1437866 1419178 1395196
2185.93 1356446 1307796 1270110 1221068 1168816 1152552
2188.82 1204720 1275996 1319896 1314032 1304210 1321808
2191.72 1331062 1289420 1264110 1243676 1243554 1264714
2194.61 1266460 1262982 1240222 1232604 1259178 1280804
2197.50 1293280 1314232 1307270 1321542 1330518 1301388
2200.39 1304508 1326208 1349594 1376326 1368826 1363946
2203.29 1396902 1402290 1389758 1400070 1432404 1417170
2206.18 1424368 1492542 1554382 1561582 1600654 1643790
2209.07 1693848 1774302 1827034 1845226 1879820 1910064
2211.97 1930674 1913594 1952172 1997652 2004196 1987490
2214.86 1963170 1952924 1968260 2010540 2033858 2049596
2217.75 2104040 2157638 2199144 2222560 2236404 2283600
2220.64 2321228 2357030 2433010 2504164 2564372 2654128
2223.54 2749126 2822928 2897466 2972422 3091520 3170740
2226.43 3211364 3227292 3242524 3295936 3390606 3503302
2229.32 3588132 3643164 3716502 3750836 3771948 3831476
2232.21 3863354 3907872 3932692 3944850 3967564 3997970
2235.11 4022446 4060460 4129512 4188356 4206262 4252690
2238.00 4320474 4371400 4379614 4435466 4516576 4565598
2240.89 4613540 4668000 4729676 4823178 4924106 5057092
2243.79 5272146 5463998 5523844 5417816 5293270 5225912
2246.68 5116686 4905150 4719818 4626398 4586622 4588770
2249.57 4618980 4639320 4672030 4717398 4776000 4860658
2252.46 4903374 4887254 4903026 4941492 5001516 5023584
2255.36 5034160 5019866 4993028 4980954 4956234 4953676
2258.25 4933994 4897868 4867444 4835190 4833790 4813660
2261.14 4746112 4661212 4616500 4602880 4542238 4428696
2264.03 4330946 4245418 4145292 4068082 4064136 4037960
2266.93 3959172 3898978 3839186 3765532 3695150 3652614
2269.82 3599160 3538254 3501214 3473096 3417822 3381914
2272.71 3354032 3273708 3200036 3133052 3066336 3023602
2275.61 2968566 2913724 2880162 2816486 2769292 2734354
2278.50 2643816 2566296 2552426 2511244 2466148 2432906
2281.39 2442450 2424180 2369650 2300636 2259388 2243872
2284.28 2209966 2137328 2095042 2092954 2097772 2083014
2287.18 2055022 2032466 2016670 1963862 1932986 1912542
2290.07 1886724 1897282 1894496 1872642 1863240 1845516
2292.96 1819398 1781234 1763182 1746934 1705956 1702942
2295.85 1690002 1646962 1647348 1634296 1631542 1613006
2298.75 1593016 1600286 1605036 1616384 1597122 1536472
2301.64 1516756 1524000 1492058 1476230 1465786 1499956
2304.53 1502372 1482702 1488840 1534688 1547384 1510292
2307.43 1498586 1520778 1564704 1540564 1472526 1518512
2310.32 1584962 1598868 1575066 1602616 1616990 1622456
2313.21 1550014 1533914 1596902 1678442 1570094 1478966
2316.10 1519558 1665610 1635292 1578244 1648552 1748594
2319.00 1623474 1460174 1473314 1664032 1671808 1480528
2321.89 1493872 1731788 1712654 1516582 1571380 1840844
2324.78 1818396 1533282 1601174 1894488 1857032 1625296
2327.67 1752110 1999658 1809972 1512084 1699664 1939940
2330.57 1663066 1452106 1785112 1929948 1567082 1518742
2333.46 1951920 1902280 1487638 1600870 1938390 1681108
2336.35 1401720 1716412 1862946 1475566 1467472 1858676
2339.24 1701608 1371198 1633230 1786744 1439422 1372482
2342.14 1635186 1514510 1297204 1443080 1501874 1315818
2345.03 1391216 1525498 1373682 1247272 1282412 1241466
2347.92 1140580 1101512 1116594 1139360 1112108 1135310
2350.82 1239864 1198438 1128928 1273688 1257754 1089330
2353.71 1290798 1317100 1136656 1369684 1371224 1106192
2356.60 1369938 1378498 1167042 1447690 1354062 1113474
2359.49 1401326 1270590 1145426 1434540 1158074 1140652
2362.39 1368026 1077644 1223212 1265096 1051564 1234268
2365.28 1051214 998760 1127812 892992 1040128 1005718
2368.17 911516 994990 815170 879252 831718 771462
2371.06 791508 685372 729522 659478 692792 651258
2373.96 592976 601672 543290 573264 573346 548332
2376.85 483888 442556 388356 397864 388106 378916
2379.74 396018 410366 363698 312642 329890 360264
2382.64 350056 346958 363752 364130 348384 333072
2385.53 318198 309430 312980 320660 318996 301784
2388.42 302992 346722 368504 338416 349308 389592
2391.31 399866 374912 357918 374166 433418 458064
2394.21 458458 490740 502534 502144 526878 548492
2397.10 552964 590806 605394 631910 656212 651262
2399.99 668188 672670 722086 786008 812628 846058
2402.88 918778 950694 956378 985844 1042742 1067662
2405.78 1064918 1082130 1120126 1154712 1197072 1211096
2408.67 1241992 1297486 1338610 1349976 1376984 1427906
2411.56 1480850 1528094 1553784 1568048 1599786 1616924
2414.46 1620884 1636662 1697174 1752688 1795538 1801568
2417.35 1813960 1874852 1908288 1903618 1921244 1959318
2420.24 1992642 2022258 2017304 2015556 2042400 2081756
2423.13 2135284 2121080 2097258 2105834 2142648 2134162
2426.03 2122338 2115178 2124538 2114364 2116432 2146094
2428.92 2179012 2194708 2211822 2237506 2241832 2187866
2431.81 2180188 2177356 2129454 2113964 2123458 2116790
2434.70 2110406 2080004 2099074 2132586 2083418 2056756
2437.60 2085006 2058802 2035832 2059494 2115788 2154004
2440.49 2172080 2211718 2265258 2388522 2545936 2535446
2443.38 2362106 2170798 2047376 1988714 1954706 1922254
2446.28 1913522 1895286 1914468 2010638 2164754 2357242
2449.17 2434692 2239418 1935656 1663486 1470366 1331690
2452.06 1236518 1151636 1080474 1023632 1003270 1008814
2454.95 976924 919184 916876 921026 898612 854928
2457.85 774828 739472 735190 734102 734316 729060
2460.74 725432 716888 691864 695446 705216 690250
2463.63 664622 644906 676860 673092 652648 630802
2466.52 620656 595948 569608 574720 597462 587572
2469.42 588104 574474 562922 564478 569876 567822
2472.31 586120 630200 638908 577130 598726 615454
2475.20 614102 622180 619582 598426 619358 647042
2478.10 665786 666966 705074 751058 753824 733168
2480.99 729090 750028 791098 815808 845162 833836
2483.88 825358 863346 894736 889084 875152 877676
2486.77 940722 973424 985010 958054 935664 954872
2489.67 955792 990164 1005030 974548 987572 1020056
2492.56 1032092 1041498 1049116 1063420 1101138 1104606
2495.45 1091552 1069478 1051966 1062950 1120330 1151134
2498.34 1172034 1194334 1187858 1175550 1190878 1183148
2501.24 1198200 1220770 1249186 1299518 1295122 1296304
2504.13 1315208 1344488 1336766 1315696 1286796 1283230
2507.02 1325926 1360030 1348672 1353684 1374814 1398610
2509.92 1401798 1364048 1348328 1347482 1344354 1338626
2512.81 1319034 1308270 1333052 1296898 1282318 1298316
2515.70 1329656 1363658 1361908 1310942 1323406 1348036
2518.59 1317686 1312634 1339948 1297348 1320368 1324690
2521.49 1275010 1289612 1332702 1357698 1415016 1472052
2524.38 1518686 1508298 1456216 1475650 1475506 1423878
2527.27 1457992 1500460 1531272 1539544 1534990 1576220
2530.16 1635714 1647696 1661402 1659700 1682174 1720820
2533.06 1748344 1763136 1782266 1794136 1794932 1835108
2535.95 1916566 1954926 1983586 2008192 2037734 2092532
2538.84 2136770 2157494 2162966 2180956 2245214 2286478
2541.74 2321610 2344798 2443988 2561672 2602560 2590212
2544.63 2625902 2709342 2755892 2818360 2916518 3022730
2547.52 3122046 3188202 3287328 3364178 3393452 3463730
2550.41 3569122 3690014 3804976 3877114 3961200 4077460
2553.31 4219042 4281586 4338712 4434328 4545850 4636324
2556.20 4728486 4825264 4917104 4997304 5075100 5194956
2559.09 5298324 5335708 5405368 5439414 5489580 5568238
2561.98 5597356 5602682 5652016 5679704 5682198 5688178
2564.88 5685046 5667214 5679432 5718498 5717756 5749014
2567.77 5822808 5867786 5908840 6012814 6109054 6117046
2570.66 6092530 6091934 6141044 6283110 6478830 6690592
2573.56 7010794 7413880 7674354 7381746 6524678 5830132
2576.45 5554666 5510914 5553736 5589596 5550232 5519574
2579.34 5502152 5493646 5562346 5676554 5781044 5852118
2582.23 5939286 5995254 5996002 5963722 5932268 5919614
2585.13 5887750 5829298 5781532 5669990 5562954 5471500
2588.02 5400648 5281324 5140018 4992700 4843730 4698026
2590.91 4520936 4369368 4224912 4055996 3859694 3688108
2593.80 3515214 3342596 3209032 3029164 2868072 2736026
2596.70 2578258 2422948 2285880 2190962 2112538 2010672
2599.59 1900974 1776654 1715788 1642962 1545508 1484554
2602.48 1449102 1411408 1346342 1297638 1290408 1259276
2605.37 1200662 1195272 1143634 1083508 1066090 1039968
2608.27 1007714 1026488 1048506 1018600 1013312 1017960
2611.16 1016716 1010558 993330 1003320 1023730 1024600
2614.05 1019768 967866 938860 958828 966256 910624
2616.95 923556 984006 970938 933838 938556 967480
2619.84 1009344 1034284 1017070 1008418 1003224 1006798
2622.73 1014548 1023424 1014592 1004844 1026410 1038432
2625.62 1054514 1080420 1106784 1151666 1186184 1163614
2628.52 1136330 1148272 1180114 1198938 1166444 1131612
2631.41 1117080 1127064 1174782 1223090 1198646 1168240
2634.30 1216698 1245462 1243136 1270340 1228022 1197660
2637.19 1232912 1241196 1261554 1301878 1307052 1287374
2640.09 1289544 1283406 1256410 1290290 1313530 1268440
2642.98 1300936 1334832 1332326 1316836 1284222 1256186
2645.87 1288338 1316058 1301896 1282346 1233718 1246284
2648.77 1243492 1208340 1220922 1244954 1246880 1218458
2651.66 1185262 1175428 1206680 1210138 1216222 1195250
2654.55 1177670 1202380 1192336 1176578 1216186 1232280
2657.44 1169580 1133882 1145206 1146430 1147072 1083626
2660.34 1064658 1135644 1186096 1116632 1042480 1040072
2663.23 1037716 1031280 1014846 967550 961576 952552
2666.12 937158 915542 837008 864672 889568 868126
2669.01 842336 847296 849468 800018 748712 749488
2671.91 747588 721532 719440 705602 691504 690928
2674.80 674632 666126 668024 633914 634232 652394
2677.69 642152 691348 713020 655118 640288 689558
2680.59 725284 701382 682780 699624 699848 721610
2683.48 748028 720786 707272 733340 721314 704314
2686.37 704020 744940 815216 808538 789886 770114
2689.26 793392 820444 818008 826032 805458 790284
2692.16 789144 786644 790038 811056 823564 804912
2695.05 787900 827992 834892 802942 813142 850126
2697.94 918792 958324 922308 848356 816526 814564
2700.83 847698 901798 880906 868632 932960 982112
2703.73 995154 1017820 1075206 1149986 1187578 1190260
2706.62 1159266 1143342 1161550 1120074 1122474 1167544
2709.51 1159088 1191884 1284294 1285988 1210908 1232696
2712.41 1251426 1240278 1245070 1278964 1282414 1283634
2715.30 1283036 1242022 1180228 1177178 1171826 1180914
2718.19 1196872 1222678 1156064 1109516 1107868 1050790
2721.08 1026446 1026146 1043704 1052084 1039720 1026142
2723.98 1013348 986934 990306 1007984 971120 969072
2726.87 1020334 985598 976192 992998 950028 913598
2729.76 888466 811934 839840 920846 948468 963852
2732.65 1007126 980792 943628 954500 990322 991752
2735.55 1010882 1041724 1035362 1024970 1001752 948456
2738.44 925876 955734 990154 1003448 1056126 1099912
2741.33 1083982 1065482 1027280 1046210 1063420 1085272
2744.23 1124256 1124682 1096662 1106948 1125172 1134594
2747.12 1128962 1163252 1207658 1226158 1238434 1264932
2750.01 1295842 1291334 1310296 1343000 1369114 1366882
2752.90 1399948 1445240 1485758 1550316 1552618 1514004
2755.80 1552568 1600792 1626038 1673304 1729984 1764544
2758.69 1780254 1853286 1928884 1987722 2023658 2052138
2761.58 2126974 2194512 2256020 2272976 2291844 2390180
2764.47 2477852 2521546 2528546 2559444 2635018 2713852
2767.37 2825430 2892602 2913300 3000086 3057388 3123784
2770.26 3240546 3364724 3472318 3527462 3616098 3716966
2773.15 3795526 3927388 3989192 4025182 4102044 4131408
2776.05 4225072 4355342 4496610 4636630 4743086 4769562
2778.94 4742282 4743984 4728730 4752244 4854184 4936840
2781.83 4998560 5017904 5050362 5081368 5108672 5164526
2784.72 5267864 5318528 5396864 5478786 5503836 5558096
2787.62 5591018 5665524 5811758 5874038 5828618 5870026
2790.51 5929116 5954916 5965808 5976780 6046494 6114350
2793.40 6173390 6230810 6276896 6393158 6501336 6529264
2796.29 6618898 6744450 6789606 6811636 6764902 6627270
2799.19 6595758 6581574 6545432 6586786 6629564 6690138
2802.08 6703264 6672530 6686474 6736982 6716310 6644070
2804.97 6669372 6777978 6835824 6811548 6760272 6701546
2807.87 6685052 6688184 6704864 6720530 6718258 6716356
2810.76 6649010 6685426 6735340 6725860 6757390 6756830
2813.65 6814506 6898336 6908658 6885142 6901162 6930130
2816.54 6914488 6964392 7008746 7033550 7035680 7083076
2819.44 7167672 7286078 7410962 7562418 7614892 7611914
2822.33 7729962 7808532 7879228 8097986 8279234 8327754
2825.22 8456854 8687948 8820366 8931838 9096072 9299734
2828.11 9475348 9600308 9811834 10029080 10220720 10477970
2831.01 10749660 11027620 11284640 11526500 11779640 12068860
2833.90 12280510 12467940 12702900 12964280 13257000 13532920
2836.79 13784160 14018410 14193460 14407570 14655860 14859070
2839.69 15098780 15319660 15544620 15764230 15902700 15996280
2842.58 16213790 16413020 16572750 16699140 16834790 16969440
2845.47 17123020 17300720 17451080 17532890 17672200 17808710
2848.36 17918870 18068480 18219580 18396170 18511500 18634590
2851.26 18819730 18934970 19041300 19186200 19338840 19439680
2854.15 19478770 19515870 19615710 19770410 19910260 20022330
2857.04 20082030 20101200 20144340 20223690 20225110 20246360
2859.93 20309880 20404100 20532340 20653660 20836880 21049640
2862.83 21247390 21455970 21588220 21575560 21464860 21354870
2865.72 21288050 21157870 21079400 21062190 21044120 21054200
2868.61 20996130 20854290 20741230 20579430 20424920 20383440
2871.51 20309120 20183360 20102030 19974110 19806840 19720410
2874.40 19704980 19592390 19453190 19333710 19292660 19264430
2877.29 19203920 19119390 19050050 19009740 18921120 18874760
2880.18 18827750 18776900 18745160 18718980 18694450 18653810
2883.08 18677610 18710690 18719250 18713600 18819730 18899230
2885.97 18886160 18968710 19089170 19179200 19294530 19366060
2888.86 19469420 19632560 19811170 20047540 20327050 20680940
2891.75 21118890 21396840 21523320 21685660 21843560 22032750
2894.65 22210220 22491550 22849510 23279220 23730660 24157070
2897.54 24627980 25179190 25635080 26106880 26617250 27159740
2900.43 27772520 28380590 29032050 29705680 30359790 31096640
2903.32 31887950 32710590 33599350 34535840 35500410 36416900
2906.22 37426760 38483960 39500280 40569510 41578820 42652720
2909.11 43934350 45395410 46863700 48230770 49544770 50845000
2912.00 52138910 53534520 54975050 56386330 57678050 59052340
2914.90 60501490 61908120 63343090 64827350 66251580 67539180
2917.79 68751660 69924440 71016940 71943980 72782820 73611230
2920.68 74378880 75056480 75869500 76679340 77304540 77975600
2923.57 78774810 79431810 79938420 80385110 80772220 81085810
2926.47 81374300 81798060 82289420 82852380 83768900 84519170
2929.36 84395250 83824220 83455820 83232430 83017780 82829270
2932.25 82614100 82552810 82807550 83437610 84533730 86018300
2935.14 87699660 89549540 91421880 93185170 94751060 96069380
2938.04 97267020 98419090 99485240 100471200 101633000 102993600
2940.93 104524400 105738600 106037900 106163500 106458200 106799600
2943.82 107252000 107690800 107958300 108339300 108667700 108826800
2946.72 108868800 108739400 108504000 108139900 107726800 107173700
2949.61 106454600 105806800 105088900 104217900 103317400 102483100
2952.50 101777200 100972100 100029700 99007650 97932980 96992580
2955.39 96078140 95238350 94578120 94153500 93182660 91939700
2958.29 90885440 89611090 88151550 86930030 86232460 85774410
2961.18 85471300 85482340 85624450 86041870 86837090 88292570
2964.07 90384930 93167040 96850250 101880100 108473200 116220800
2966.96 125130700 136963900 155303200 188013900 241573800 286904700
2969.86 279904300 242039900 208928500 183942300 162448100 143650000
2972.75 128423400 116932300 108322000 101854200 96915100 92994410
2975.64 90234580 88361140 86794720 85338840 84093570 83228510
2978.54 82927610 83070120 83445320 83876400 84328060 84922540
2981.43 85761740 86871620 88130740 89445110 90786930 92002700
2984.32 93023090 94099860 95245710 96329730 97410840 98314150
2987.21 99131920 99944590 100789600 101626400 102396300 103211400
2990.11 104049900 104787600 105498200 106336300 107207600 108102200
2993.00 108970400 109931900 110999700 112149000 113244200 114264700
2995.89 115237100 116181800 117215200 118299700 119425300 120442200
2998.78 121412000 122406300 123364900 124180300 124933000 125631500
3001.68 126207400 126725500 127171400 127527500 127848400 128083100
3004.57 128045200 127859900 127598600 127457100 127413100 127138300
3007.46 126546300 126046600 125594900 125047700 124455100 123908800
3010.36 123359800 123257300 123533500 123957800 124607800 125751700
3013.25 127394400 129577600 132044200 134305000 136012800 137757800
3016.14 141083600 143638400 137768700 127343000 121635600 120043200
3019.03 119916300 120297100 120948600 121873600 122889100 123598900
3021.93 124037700 124427400 124894300 125289800 125715800 126040900
3024.82 126219400 126275500 126448300 126596100 126442100 126138900
3027.71 125634200 124889400 123944500 122685100 121256500 119625300
3030.60 117807600 115795400 113583000 111204200 108629200 105972700
3033.50 103358500 100666000 98118150 95558260 92971370 90483650
3036.39 88051180 85562590 83091820 80652340 78326790 76071490
3039.28 73814860 71674940 69650320 67503040 65497510 63788250
3042.18 62366900 61164170 60077820 59134850 58243730 57379130
3045.07 56555180 55789280 55048050 54286480 53526270 52854720
3047.96 52283230 51724910 51248760 50744460 50247440 49863880
3050.85 49558500 49238840 48974270 48765620 48632180 48542050
3053.75 48488160 48392800 48228660 48055360 47898160 47666680
3056.64 47456760 47248380 47007010 46809690 46652860 46440260
3059.53 46231140 46039890 45866360 45685940 45585250 45533740
3062.42 45477730 45342990 45283390 45349120 45365250 45260060
3065.32 45065450 44899360 44808050 44643200 44550890 44523860
3068.21 44487740 44463920 44385580 44248040 44113180 43992660
3071.10 43854440 43671770 43616400 43502600 43285580 43082060
3074.00 42864960 42558890 42233590 41965540 41732780 41495430
3076.89 41175050 40904500 40783600 40655280 40453930 40138440
3079.78 39924070 39745920 39456620 39176320 38994870 38788480
3082.67 38506730 38206050 37807200 37436170 37107010 36781460
3085.57 36482970 36177060 35920280 35657940 35382420 35140620
3088.46 34878820 34534390 34212330 33853870 33544990 33120380
3091.35 32518180 31938970 31468430 30910170 30334220 29844970
3094.24 29425020 28979500 28453240 27951210 27536840 27087540
3097.14 26706550 26394020 26098670 25814570 25516340 25163810
3100.03 24837320 24515580 24176650 23770540 23327680 22982360
3102.92 22680780 22243450 21770880 21403620 20980090 20590770
3105.82 20274500 19839680 19417160 19032900 18669710 18368710
3108.71 18048760 17631340 17267960 16884680 16444270 16119590
3111.60 15863440 15551080 15219670 14864920 14452610 14049870
3114.49 13743510 13496120 13196450 12826700 12520340 12352310
3117.39 12095240 11759820 11489640 11168150 10867360 10671870
3120.28 10583380 10410630 10131210 9905580 9731042 9501620
3123.17 9250822 9059352 8901690 8718902 8542922 8412170
3126.06 8202710 8041416 7977834 7831680 7610088 7434804
3128.96 7295150 7189640 7104152 7012246 6927882 6782724
3131.85 6690194 6569026 6376610 6246840 6219658 6187410
3134.74 6074220 5940352 5859002 5849296 5863870 5809012
3137.64 5718174 5534314 5416562 5446992 5529466 5516684
3140.53 5396988 5228296 5080160 5042098 5047204 4970164
3143.42 4906726 4887134 4861136 4820476 4740746 4686366
3146.31 4706342 4715566 4720064 4654242 4647422 4701574
3149.21 4672200 4647036 4694468 4603228 4398368 4380276
3152.10 4543480 4591252 4476462 4374640 4300014 4201948
3154.99 4183066 4202706 4182862 4173924 4235452 4232368
3157.88 4167490 4068154 4031196 4078802 4069454 3973192
3160.78 3917986 3897034 3883876 3971262 3996570 3941132
3163.67 3856128 3866720 3903488 3885510 3832152 3787270
3166.56 3737296 3746830 3749456 3768026 3759718 3712476
3169.46 3710250 3716554 3679588 3598490 3618262 3615292
3172.35 3514326 3458160 3462662 3413054 3407932 3450000
3175.24 3484936 3488058 3433852 3445660 3474126 3412104
3178.13 3346148 3348042 3309554 3172260 3120068 3137478
3181.03 3149654 3139782 3106174 3101472 3131860 3071526
3183.92 3045620 3010196 2964868 2911804 2885326 2873244
3186.81 2803966 2753406 2758556 2775202 2785746 2704674
3189.70 2622998 2600340 2642938 2679222 2580594 2474760
3192.60 2482494 2500240 2507886 2484522 2454398 2400752
3195.49 2441720 2397882 2295544 2322288 2331694 2299282
3198.38 2322696 2281102 2186418 2177088 2190992 2151722
3201.27 2092954 2101882 2138972 2043664 1985732 1988136
3204.17 1989782 1956592 1960460 1946384 1918840 1924424
3207.06 1925864 1892682 1889682 1831640 1784834 1823798
3209.95 1902592 1856012 1744432 1749272 1829758 1784130
3212.85 1651136 1704586 1734650 1651074 1661068 1681600
3215.74 1704444 1639794 1586174 1599872 1582056 1544800
3218.63 1560880 1612188 1654090 1574782 1504734 1536008
3221.52 1573710 1555622 1501978 1428036 1419362 1489830
3224.42 1560142 1569850 1495388 1442632 1419354 1352444
3227.31 1329036 1377722 1408794 1407122 1407820 1462236
3230.20 1459996 1401202 1401034 1458564 1432002 1277022
3233.09 1213514 1275382 1329542 1305422 1316824 1321102
3235.99 1340890 1351506 1299566 1330626 1403598 1374564
3238.88 1286688 1240702 1269382 1276878 1274840 1258866
3241.77 1210490 1187282 1189256 1256874 1273014 1284704
3244.67 1298086 1176778 1132748 1180748 1168826 1143340
3247.56 1154200 1193738 1135144 1064150 1114046 1205244
3250.45 1216760 1208044 1138566 1090506 1189986 1261346
3253.34 1245494 1230940 1216996 1086368 1047702 1132900
3256.24 1150460 1157488 1102572 1090286 1147364 1103156
3259.13 1010448 1037742 1083682 1077626 1071564 1099054
3262.02 1094858 1049960 963700 990022 1065888 1078974
3264.91 1000270 953950 1018448 1021212 972002 935174
3267.81 977048 955846 922506 971016 945328 852206
3270.70 866794 957724 1053522 1073758 1032692 990948
3273.59 944002 933436 970590 974254 967490 1023696
3276.49 1031996 995616 991220 1016312 959980 898094
3279.38 912328 997876 1060478 1055642 1021088 981206
3282.27 1027944 1012848 982156 1022746 983272 919494
3285.16 943152 1015042 1063344 1020206 992022 1133790
3288.06 1199000 1094420 1000126 985782 984072 1034306
3290.95 1101812 1155174 1151236 1066696 962078 928054
3293.84 1027390 1054146 983278 968068 1003204 983214
3296.73 970894 998512 1029158 1043090 1010430 1079386
3299.63 1152326 1109594 1108298 1052172 980212 920210
3302.52 922510 944984 926190 894892 988814 1049814
3305.41 968208 977286 1000128 1018458 1025066 1038988
3308.31 1074696 1124344 1144766 1116918 1040770 1035026
3311.20 1036666 1021994 905688 849564 895890 934086
3314.09 987646 941710 992492 993852 936218 975478
3316.98 1034182 1011388 976810 954358 906436 951132
3319.88 915888 819144 871646 881484 865318 865814
3322.77 881910 863710 798528 839190 907626 878506
3325.66 841532 843256 886892 915624 893902 823714
3328.55 753350 696590 718446 697558 642690 701922
3331.45 818020 772324 680718 674918 669922 662070
3334.34 732830 697918 648024 678472 671340 600782
3337.23 566798 578362 562674 686148 681264 663912
3340.13 691148 644124 552700 586970 583042 551084
3343.02 591058 649460 618402 566402 500194 494816
3345.91 547528 583418 624856 685890 671612 631672
3348.80 674622 614418 476036 458980 512908 575040
3351.70 607340 576554 590066 670740 676612 658826
3354.59 586826 547876 607212 642830 587754 611250
3357.48 619486 662098 702234 690608 658454 569546
3360.37 539592 608440 633472 687572 658848 669512
3363.27 728946 774806 802882 765522 712700 675778
3366.16 650550 717518 755140 757140 739594 629468
3369.05 673970 895860 887136 867590 907742 923034
3371.95 940162 957844 972520 998140 1075138 1036282
3374.84 1052058 1113640 1107994 1068652 1068416 1106088
3377.73 1252052 1310678 1270104 1211106 1166914 1199632
3380.62 1239380 1323014 1345136 1348868 1337752 1389880
3383.52 1513940 1463270 1307378 1295250 1338946 1395158
3386.41 1448350 1435224 1414440 1389640 1366734 1345558
3389.30 1370514 1379484 1418000 1431928 1451476 1559550
3392.19 1617034 1542820 1451512 1433938 1381390 1349712
3395.09 1363830 1381318 1461284 1505818 1495472 1572582
3397.98 1580556 1505150 1419918 1393928 1409364 1462580
3400.87 1566828 1583070 1576318 1584468 1593630 1553976
3403.77 1554766 1612492 1593114 1563426 1602726 1617672
3406.66 1702858 1733748 1734946 1725406 1757126 1782176
3409.55 1884652 2039856 2033664 1971064 2024134 2110804
3412.44 2188490 2302188 2387876 2481050 2567282 2641784
3415.34 2752782 2883072 2930098 3037198 3242454 3352884
3418.23 3404788 3596434 3822006 4052050 4247246 4316722
3421.12 4575362 4802824 4966356 5243302 5519952 5779106
3424.01 6015674 6230846 6511398 6803486 7121458 7521322
3426.91 7832944 8132432 8463344 8874538 9275942 9601118
3429.80 9980116 10387450 10803180 11124660 11446700 11803240
3432.69 12355560 12816470 13186870 13597920 13955900 14315450
3435.59 14639670 14980880 15357050 15696580 16035140 16422650
3438.48 16729420 17015180 17348390 17624610 17861560 18106260
3441.37 18421450 18785280 19124960 19385680 19601660 19786150
3444.26 20051580 20321290 20530280 20787020 21165010 21491460
3447.16 21597070 21679010 21743960 21734910 21610110 21409540
3450.05 21466490 21812790 22197520 22677270 23296120 24034060
3452.94 24736220 25309600 25714750 25925920 25924240 25774300
3455.83 25670300 25609980 25524930 25339570 25116260 25093350
3458.73 25024990 24893890 24965940 24956040 24853670 24843990
3461.62 24831850 24885790 24878330 24775360 24638280 24571570
3464.51 24433200 24221180 24045330 23904090 23716000 23444720
3467.40 23122210 22797360 22615160 22339950 21925820 21691790
3470.30 21394740 21001210 20730440 20476200 20034970 19583980
3473.19 19228390 18858140 18569020 18216470 17735270 17253700
3476.08 16924250 16562570 16134050 15719380 15331880 14868770
3478.98 14513050 14233300 13885740 13516150 13157060 12809010
3481.87 12445710 12093750 11777080 11462600 11095890 10698590
3484.76 10350450 10019000 9756012 9450378 9095182 8816844
3487.65 8539568 8310224 8181570 8032424 7970364 7874018
3490.55 7741690 7580046 7355674 7189034 7003620 6868148
3493.44 6828600 6774156 6750586 6624794 6411584 6266376
3496.33 6098114 5881152 5718394 5520334 5380234 5313250
3499.22 5275264 5179612 5031202 4922452 4874746 4728904
3502.12 4627264 4656978 4517928 4236500 4128110 3990112
3505.01 3807696 3635490 3635276 3550216 3351014 3203442
3507.90 3213854 3148068 3050912 2868888 2672984 2643140
3510.80 2632514 2594534 2456228 2329724 2318258 2208168
3513.69 2042668 2008524 1983344 1890586 1756474 1672136
3516.58 1648430 1602048 1565970 1538908 1540468 1516076
3519.47 1444944 1304294 1246366 1295292 1231916 1155640
3522.37 1220110 1223810 1202992 1159124 1037968 1040296
3525.26 1094586 999622 988700 1010734 952366 913772
3528.15 865108 874248 797236 717782 762404 748678
3531.04 642214 544790 527356 561538 491278 428498
3533.94 429766 407658 448946 532792 537954 492722
3536.83 433736 367506 361296 370272 287922 276100
3539.72 302226 166650 97204 130786 239116 347470
3542.62 353848 340264 306200 277562 407312 304224
3545.51 107012 266936 552910 383668 200798 179674
3548.40 103466 82634 121452 170002 210596 206654
3551.29 300152 494644 417094 269262 245456 156158
3554.19 75100 67528 162482 143764 158306 235084
3557.08 227666 193530 213920 193314 123884 230442
3559.97 252878 140932 126612 188174 192388 114764
3562.86 224282 257882 225834 226934 327286 588860
3565.76 823106 807402 417204 684412 1013780 506274
3568.65 91434 27550 52190 114488 128732 28770
3571.54-70288-65384-94828-154006-117846-51350
3574.44-72154-150696-115066-34644-3186-61312
3577.33-178854-222008-157690-24342 88072 53706
3580.22-81888-173046-175328-103606-125670-187516
3583.11-128060-153714-118246-65522 4680 363924
3586.01 939962 613458 124042 198158 1068052 1145188
3588.90 128600-132918-124924-153874-171816-82928
3591.79 13840 212036 304494 78618-95124-15486
3594.68 311576 367048 180618-9726-76440-8484
3597.58 46650 82358 79552 100712 60254 126106
3600.47 271372 189770 11058-3562 45784 1626
3603.36-58890-20458-46068 2286 86870 136658
3606.26 459396 527146 145242 67656 663316 1899642
3609.15 1320626 224802 4578-84422 11058 565668
3612.04 1309220 791868 176592 264698 580314 440526
3614.93 224370 117088 38562 44062 566834 851250
3617.83 391420 327196 1324106 1774514 693640 302540
3620.72 348478 192580 71438 104278 162058 157062
3623.61 45862 44126 49610 104380 235706 294986
3626.50 229308 394204 1651110 2563536 1811026 2933776
3629.40 2582484 752822 308346 159340 101126 62710
3632.29 113154 341656 682912 447290 169890 113422
3635.18 95718 68092 144496 144120 192926 305938
3638.08 284260 182052 133170 141196 141158 92854
3640.97 117316 196856 269228 209978 194130 153868
3643.86 137018 201716 304302 363646 658180 1133730
3646.75 1729786 1341018 608644 1477230 3574988 2555806
3649.65 1027544 1480222 1703184 1317090 468944 278794
3652.54 223190 178264 163428 244082 355454 587358
3655.43 1739098 2490096 1082430 297648 166950 179438
3658.32 198952 241224 207046 194702 197534 276202
3661.22 255626 235012 176770 216244 273296 252322
3664.11 185496 232662 256706 295290 339346 359832
3667.00 357692 500274 1340354 1685316 836260 915922
3669.90 3142890 4349456 1719222 512386 354986 385778
3672.79 350306 614198 1167456 2520468 2807082 3662232
3675.68 4001152 1578536 547522 547394 481830 500232
3678.57 857240 1047470 658206 550462 478108 380972
3681.47 314398 336942 337356 429046 406652 436038
3684.36 471744 452608 277504 348768 455782 680840
3687.25 1552780 4555130 4501146 1424632 536376 667904
3690.14 1107572 1885868 1684976 689670 515804 523366
3693.04 525070 451564 518106 532002 541418 504928
3695.93 547424 506604 498162 459894 478820 515786
3698.82 538638 464568 461532 584184 1089236 1723204
3701.72 1306038 678702 558766 489128 477210 466930
3704.61 534742 558362 566748 539886 551072 473908
3707.50 539406 697438 1436970 2008044 1231986 687296
3710.39 878074 1257684 2951140 3790144 1853378 775320
3713.29 577284 632802 792088 658712 539878 634422
3716.18 628486 647894 608714 662096 901308 1054598
3719.07 765592 593900 602844 639024 746034 1271842
3721.96 1343706 900920 693814 711980 865130 1080984
3724.86 933136 826514 1429466 1593190 894750 724566
3727.75 706082 755084 684226 703978 780490 890684
3730.64 939896 1944142 3398894 2391646 1046414 987486
3733.54 1259270 2006438 2374430 2001554 1564132 2939238
3736.43 3273094 1419570 1003526 1351322 1195998 922416
3739.32 819356 865566 1104282 1297422 1046202 820950
3742.21 912032 1242322 2471416 5676480 8130648 5149094
3745.11 1826598 1036900 947162 1063858 1135090 1099218
3748.00 1434034 3965724 6004938 3415458 1282058 1236916
3750.89 1788528 4632090 6265766 3073062 1230686 1081038
3753.78 966982 877688 1054318 1124666 1423290 1627456
3756.68 1191940 924504 926654 1033502 1365068 1956430
3759.57 2005768 1212736 912500 926990 996080 976652
3762.46 974534 953774 948492 966590 1141316 1636652
3765.35 1980072 1365648 966136 913650 1043486 1057424
3768.25 1045986 1397498 2533218 2479024 1395804 1138020
3771.14 1156576 1081896 1037086 1036118 1008172 1065866
3774.03 1066562 978532 968840 982106 1041090 1104034
3776.93 1112354 1254152 1340478 1530344 2142900 1968758
3779.82 1309420 1203862 1255830 1318052 1295624 1252350
3782.71 1215120 1284574 1437726 1626884 1608808 1392816
3785.60 1251896 1314734 1339282 1304840 1297490 1308290
3788.50 1306190 1365606 1379006 1410476 1407440 1399114
3791.39 1384588 1363806 1329384 1374676 1337342 1391096
3794.28 1479542 1544462 1734904 2453142 2397730 1755626
3797.17 1700998 1687242 1572398 1645634 1724968 1909728
3800.07 2353520 4866600 6482096 3648166 2138374 2233584
3802.96 2020092 1841476 1789816 1757302 1845046 1927604
3805.85 2634114 4696896 4393422 2264944 1709730 1586622
3808.75 1713582 1726652 1649160 1524264 1553072 1543322
3811.64 1692602 1695878 1723598 1643442 1674556 1660908
3814.53 1871542 3429752 6361156 4964616 2201308 1691410
3817.42 1632996 1775190 1772898 1798686 2031338 2893528
3820.32 3601716 3571280 3918654 2842036 1830198 1670568
3823.21 1637480 1722092 1634488 1562364 1582858 1688856
3826.10 2167168 2095934 1671412 1615516 1532394 1510168
3828.99 1463718 1467064 1511858 1762514 2566172 2747184
3831.89 1813420 1491100 1419158 1478306 1809364 2816934
3834.78 2541902 1619552 1415350 1529050 2610172 5917646
3837.67 5481842 2208232 1421838 1576348 1757810 1840768
3840.57 2329720 1720934 1223060 1192632 1367320 1954834
3843.46 2030694 1342068 1153322 1013830 993934 975584
3846.35 1017494 972294 1034514 1021866 1107914 1165936
3849.24 1181688 1062328 1025390 1354332 3591788 5150396
3852.14 2806930 1814822 4443674 8190062 6766310 2576954
3855.03 1117944 918946 1010480 1309918 1367470 1030644
3857.92 895608 834776 790316 813884 967618 985462
3860.81 1328306 1831158 1368380 847030 920058 1023836
3863.71 1265416 2130632 2887070 1751182 972674 794070
3866.60 774652 694912 825178 1103868 1876038 2454414
3869.49 3734948 2912068 1010906 804784 798594 805760
3872.39 778636 929908 1383424 1815164 1286026 760628
3875.28 734428 676548 693328 674196 651330 675544
3878.17 711842 764058 1178456 1962542 1710752 1150394
3881.06 919434 697546 747302 945362 981894 792398
3883.96 834558 1189954 2813080 3349074 1670582 764646
3886.85 763714 723120 665582 705702 776078 812524
3889.74 781112 1398102 2715640 2283324 1149938 928412
3892.63 886332 903304 989076 931984 795382 802490
3895.53 818420 850162 879636 967394 1030730 1131984
3898.42 1861844 2603730 1713490 984140 1023654 1750296
3901.31 2695934 2057384 1231244 1196600 2030844 3010402
3904.21 2087494 1266792 1392994 1498360 1268466 1100302
3907.10 1061524 1132310 1096998 1071340 1103144 1126070
3909.99 1073372 1149808 1216726 1164760 1201642 1219086
3912.88 1244064 1271650 1323950 1334876 1281744 1287838
3915.78 1483560 1820976 2249198 1815832 1354220 1358012
3918.67 1421994 1725774 1972662 1595084 1320340 1322188
3921.56 1373864 1414152 1440794 1531014 1554608 1598622
3924.45 1848832 1828268 1469802 1265240 1268848 1371510
3927.35 1440196 1466696 1558062 1621260 1516640 1495848
3930.24 1498878 1446016 1621912 1948002 1901048 1598058
3933.13 1489310 1488780 1559460 1656874 1592058 1503400
3936.03 1481130 1358460 1349722 1494766 1531830 1492922
3938.92 1491738 1485650 1504486 1516362 1449916 1465946
3941.81 1685170 1867738 1639306 1486690 1541238 1506100
3944.70 1517914 1520580 1514946 1492288 1582546 1659718
3947.60 1588546 1468388 1445488 1651590 1757970 1570624
3950.49 1489786 1467744 1450484 1475638 1434990 1401154
3953.38 1430834 1496874 1563422 1579500 1480450 1434538
3956.27 1481948 1549494 1560080 1583982 1579430 1586038
3959.17 1623000 1609088 1638990 1650654 1706252 1769462
3962.06 1715646 1642436 1592964 1655492 1744222 1763508
3964.95 1774134 1802856 1791180 1774816 1811076 1882084
3967.85 1890612 1959706 2011498 2018076 2007386 1999584
3970.74 2001180 2140048 2286706 2252762 2177460 2216832
3973.63 2264348 2382982 2437182
##END=
