##TITLE=Acetone
##JCAMP-DX=4.24
##DATA TYPE=INFRARED SPECTRUM
##CLASS=IUPAC A
##ORIGIN=NIST, Anayltical Chemistry Division, 301-975-3108
##OWNER=COPYRIGHT (C) 1998 by the U.S. Secretary of Commerce
##DATE=98/10/1
##$SPECTRA VERSION=1.00
##$UNCERTAINTY IN Y=2.3 % relative (B=1.3E-04,C=1.7E-09,D=2.7E-14)
##CAS NAME=2-Propanone
##CAS REGISTRY NO=67-64-1
##MOLFORM=C H3 C O C H3
##MP=-95.35 C
##BP=56.2 C
##$NIST SOURCE=QUANT-IR
##SPECTROMETER/DATA SYSTEM=IFS66V (Bruker)
##INSTRUMENT PARAMETERS=KBr Beam splitter; MCT Detector; Multipass cell
##STATE=gas
##SAMPLE DESCRIPTION=Acetone Primary Gas Standard
##PRESSURE=101.3 kPa
##TEMPERATURE=23 C
##SAMPLING PROCEDURE=1 L/min Flow
##RESOLUTION=0.9640
##DATA PROCESSING=3-Term B-H Apodization
##XUNITS=cm-1
##YUNITS=(micromol/mol)-1m-1 (base 10)
##XFACTOR=1.0
##YFACTOR=4.5474E-13
##DELTAX=0.4820
##FIRSTX=575.169
##LASTX=3975.077
##FIRSTY=2.18E-07
##MAXX=3974.59
##MINX=575.17
##MAXY=.0005181
##MINY=-1.63E-07
##NPOINTS=7053
##XYDATA=(X++(Y..Y))
575.17 481536 260182 132220 339032 526884 513174
577.58 629490 551194 276468 407338 582772 541392
580.47 262722-104154 5968 393204 469130 394034
583.37 281074 186840 471240 935564 955388 670058
586.26 466728 247178 211846 239436-39446-218780
589.15-114996-1994 95020 379904 632720 586364
592.04 527808 581562 551024 445858 234184 66390
594.94 182218 323552 290348 138200 24974 72262
597.83 121204 184322 186058 148838 224242 242304
600.72 177886 176176 140270 150890 316076 301000
603.61 128620 6580-52346 61514 147402 150922
606.51 217142 179050 29126-101626-85536 34326
609.40 73826 49770 79142 236842 350070 290988
612.29 271256 349406 301388 220022 248154 248686
615.18 155356 121958 153468 110074 7890-51330
618.08-66246-44176-23840-39724-31766 42350
620.97 135624 167478 121346 126860 71028-20268
623.86-42610-59100-14116-37960-108274-38412
626.76-5574-87908-107518-77414-81048-89812
629.65-102138-90290 37426 129424 66308-1064
632.54-49570-95578-134994-257788-352000-245422
635.43-84414-14632 14326 8852-96318-201174
638.33-214010-156276-19138 112418 50472-95422
641.22-197544-263328-224480-163520-137490-36618
644.11 12646-75980-157994-140868-116462-132144
647.00-121186-86856-101286-237562-359818-275544
649.90-107774-82584-137662-26470 77786-3344
652.79-81094-145802-288280-339002-300906-265466
655.68-200314-113200-99238-158594-138058-107386
658.58-140562-122432-89182-78874-132798-185608
661.47-155616-150160-215662-305784-346676-291660
664.36-229898-212424-187264-157568-95942 194050
667.25 486480 358062 113276 50078 3416-91696
670.15-176068-143948-97766-128420-77410-22714
673.04-41952-27948-113424-226148-153720-81876
675.93-147434-147532-76706-81316-107744-129792
678.82-153634-104834-55900-47778-82470-137352
681.72-128054-61830-76712-143080-108702-60316
684.61-78764-56348-21904-43164-92986-135236
687.50-130142-108428-80276-17704 15828-5084
690.40-15632-46410-100234-49248 29910 1930
693.29-56204-64652-13062 30510-11656-85644
696.18-122288-75680-24812 48508 81390-32070
699.07-109674-25084 93012 148928 157376 105068
701.97 16178-31076-38448 11358 80428 129998
704.86 137500 64052 14108 49304 68806 52436
707.75 60330 94838 113524 167096 229828 216268
710.64 203652 217004 207356 221908 214196 178862
713.54 158120 189392 259394 295084 292476 250136
716.43 215672 229668 252824 330666 444462 463702
719.32 419264 472948 535370 508714 476682 493960
722.22 574176 660162 628848 513334 515700 640688
725.11 780122 886240 885152 818966 791226 796880
728.00 841062 929100 973122 986332 1030814 1092854
730.89 1105270 1104750 1168968 1244804 1314644 1394432
733.79 1427670 1453528 1559506 1653272 1667626 1686346
736.68 1734664 1804776 1882234 1958774 2034038 2101658
739.57 2184870 2285210 2395862 2478160 2574126 2735840
742.46 2859366 2957530 3078436 3146976 3201852 3336418
745.36 3492136 3659304 3833610 3988138 4159312 4339680
748.25 4494810 4647286 4849338 5036972 5184200 5370364
751.14 5575520 5811110 6070400 6297274 6520800 6755478
754.04 6991420 7236494 7509006 7766162 7984542 8195478
756.93 8405896 8670392 8948620 9167978 9387584 9623558
759.82 9826416 10025310 10264210 10543030 10870680 11185210
762.71 11420950 11601730 11741100 11864490 11947310 11991630
765.61 12119280 12354070 12512820 12555230 12596380 12690410
768.50 12841270 13004920 13140250 13275030 13389790 13415330
771.39 13355180 13321120 13275330 13150600 13017080 12944830
774.28 12884660 12774910 12682780 12645750 12723180 13010250
777.18 13381440 13655420 13759220 13704940 13588360 13433120
780.07 13252050 13044240 12817780 12650650 12577480 12627650
782.96 12850190 13222680 13637800 13956220 14172870 14252560
785.86 14090460 13891210 13755310 13542380 13293180 13083720
788.75 12896250 12733130 12572720 12427030 12253810 12008440
791.64 11769430 11612530 11440260 11194760 10914490 10567260
794.53 10210120 9949912 9745302 9472554 9115650 8675932
797.43 8229206 7900286 7598840 7202344 6778346 6419760
800.32 6049068 5626178 5218152 4887508 4679450 4474414
803.21 4168144 3911828 3729692 3499402 3280072 3114160
806.10 2967362 2778306 2584516 2451566 2352440 2304542
809.00 2277082 2237478 2140182 1973518 1770814 1581514
811.89 1459928 1382890 1287404 1183494 1115440 1104788
814.78 1097946 1055282 984410 911966 884066 919392
817.68 958052 962108 928182 865642 797896 727948
820.57 730878 823072 897136 893542 833102 766538
823.46 745910 771190 767906 784882 885844 951072
826.35 912022 880392 888310 902832 896238 878400
829.25 817932 801590 897678 939782 908512 935098
832.14 1038830 1147618 1167482 1123778 1087800 1077926
835.03 1107728 1181214 1217484 1235432 1280112 1337074
837.92 1398290 1439590 1419468 1406942 1450698 1527422
840.82 1575258 1549934 1555196 1628118 1669820 1667216
843.71 1677680 1722826 1768442 1808134 1877286 1962112
846.60 2012870 2080770 2167210 2219104 2285678 2388302
849.50 2487540 2591326 2687518 2749634 2806878 2888660
852.39 3017956 3194650 3350746 3472630 3598716 3745792
855.28 3880722 4035578 4269014 4571326 4865896 5074830
858.17 5255790 5506042 5791152 6062712 6361914 6725028
861.07 7114482 7524536 7931752 8323302 8764930 9280392
863.96 9819650 10362220 10934300 11562410 12195750 12782680
866.85 13398940 14106340 14846180 15586980 16349180 17159390
869.74 18010160 18894690 19824200 20812080 21804090 22786460
872.64 23746170 24659920 25572790 26511290 27471140 28377360
875.53 29200160 29844130 30154300 30298540 30311570 30047950
878.42 29652340 29409930 29460690 29759400 30193810 30766660
881.31 31400330 31880390 32204090 32503010 32715440 32787580
884.21 32910960 33570030 35751840 39912680 43731250 44633280
887.10 43371020 42019260 41649040 42221330 43190380 43783300
889.99 43432630 42354990 41337950 40835810 40911020 41792350
892.89 44117020 48233770 52397940 53879570 52704430 51099680
895.78 50167090 49743510 49717040 50150240 50776110 51211580
898.67 51350180 51438740 51567640 51483850 51049980 50510440
901.56 50045700 49663530 49411620 49259220 49132920 48958330
904.46 48718170 48523360 48396540 48210100 47934690 47610380
907.35 47162920 46627880 46153200 45695010 45150280 44545730
910.24 43931830 43323330 42666160 41999780 41367040 40689660
913.13 39973980 39249520 38490490 37683680 36828220 35980560
916.03 35179880 34444480 33746700 33045600 32346440 31622290
918.92 30917630 30278300 29665780 29082600 28494880 27938930
921.81 27440120 26945420 26421640 25834620 25228550 24701350
924.71 24217140 23722760 23204200 22697850 22242710 21810080
927.60 21358210 20898110 20478170 20072930 19620500 19157700
930.49 18707270 18273280 17854890 17414630 16983960 16593500
933.38 16219270 15874790 15542130 15200960 14842150 14464990
936.28 14081640 13715690 13376110 13091620 12814250 12484450
939.17 12161740 11872810 11564440 11295500 11118930 10967480
942.06 10777230 10554600 10363300 10188900 10010780 9850192
944.95 9703222 9579808 9468864 9366792 9256696 9119386
947.85 8997328 8923006 8863716 8825438 8786498 8720154
950.74 8647866 8584678 8523250 8456506 8421266 8402934
953.63 8357824 8311024 8275690 8239806 8196690 8191560
956.53 8218144 8236874 8264306 8287470 8254088 8196376
959.42 8180090 8179208 8137048 8072196 8019166 8012462
962.31 7988698 7923290 7879586 7828902 7733396 7634084
965.20 7543024 7470568 7436944 7474772 7591088 7768754
968.10 8003822 8086892 7811838 7499746 7396786 7376994
970.99 7335810 7284424 7234784 7186040 7142176 7117024
973.88 7100260 7068300 7012838 6965558 6927554 6894630
976.77 6879726 6898440 6925540 6919686 6883796 6855156
979.67 6831768 6811978 6800440 6776560 6708806 6646756
982.56 6606320 6555714 6496982 6434882 6373280 6305634
985.45 6245128 6224294 6229132 6236192 6230350 6201388
988.35 6158802 6119534 6025878 5882014 5782958 5716618
991.24 5611972 5507798 5411198 5300136 5179784 5086802
994.13 5032452 4989974 4935754 4883220 4832656 4785160
997.02 4723028 4671774 4686458 4745066 4772046 4786510
999.92 4800564 4750208 4612858 4463020 4359696 4253328
1002.81 4136106 4076810 4038530 3966172 3913688 3917450
1005.70 3895700 3871226 3903156 3939334 3933416 3909036
1008.59 3872262 3841372 3855334 3898172 3932602 3998358
1011.49 4059164 4012106 3899812 3855198 3857184 3870000
1014.38 3877244 3843336 3789382 3750202 3735524 3723464
1017.27 3679256 3624828 3629886 3750150 3883792 3848024
1020.17 3667324 3541482 3508278 3497670 3488654 3492976
1023.06 3505466 3540904 3549276 3512832 3506920 3534502
1025.95 3539252 3545808 3545276 3558926 3579830 3577964
1028.84 3582000 3623418 3663010 3709528 3770504 3788514
1031.74 3767142 3761778 3786054 3848188 3905194 3931788
1034.63 3960936 4009268 4076360 4178748 4248944 4282564
1037.52 4324104 4360876 4374072 4367312 4360928 4419236
1040.41 4538008 4626924 4628662 4614614 4642978 4715084
1043.31 4780554 4800546 4814882 4858162 4902148 4945436
1046.20 4979304 4994392 5030576 5089520 5119926 5152900
1049.09 5195472 5264970 5320832 5314948 5313342 5354560
1051.99 5381034 5373950 5394298 5466748 5516886 5540554
1054.88 5560798 5598706 5641564 5699578 5773680 5861992
1057.77 5948276 6023278 6097900 6196864 6295972 6393088
1060.66 6507840 6639902 6736726 6805352 6881838 7008622
1063.56 7155072 7280738 7396214 7537750 7717464 7913662
1066.45 8092892 8270552 8418014 8583632 8774610 8957646
1069.34 9139206 9345528 9550994 9749660 9939536 10142100
1072.23 10326890 10479090 10638880 10869160 11101540 11268820
1075.13 11425660 11629510 11808800 12011430 12243080 12449650
1078.02 12669740 12903460 12996670 12987580 13038010 13220210
1080.91 13464760 13613800 13647230 13773850 13982510 14242210
1083.81 14560950 14926970 15314180 15777500 16348540 17149690
1086.70 18208050 19321620 20428170 21928320 24085180 26774260
1089.59 29767270 34350740 44374380 56802120 56215100 42694070
1092.48 32786630 31073350 36290190 43239800 39601500 28651330
1095.38 22656170 21325760 20980000 20713730 20420020 20179330
1098.27 20034910 19966690 20017580 20135330 20300500 20504830
1101.16 20765130 21041260 21313600 21560140 21796050 22032670
1104.05 22295130 22539010 22757840 22955380 23109630 23214330
1106.95 23298510 23339160 23391450 23459870 23524060 23546450
1109.84 23514390 23467090 23427560 23331470 23183510 23027480
1112.73 22863790 22645500 22403880 22183050 21919330 21563980
1115.63 21196020 20841720 20482150 20112120 19751080 19364460
1118.52 18938320 18489530 18054610 17640130 17267720 16914130
1121.41 16540080 16123870 15689990 15269990 14855850 14437470
1124.30 14035190 13674460 13335080 12970800 12604440 12260710
1127.20 11946350 11633190 11318350 10995280 10669630 10363330
1130.09 10103400 9866950 9632710 9389510 9120524 8861388
1132.98 8654826 8463418 8251346 8032984 7864268 7749282
1135.87 7627538 7457304 7296402 7161864 7019772 6869536
1138.77 6718246 6602462 6522038 6411498 6295218 6201278
1141.66 6126754 6060530 6009026 5969470 5918642 5845408
1144.55 5746864 5632302 5533682 5471262 5424810 5356652
1147.45 5299270 5265464 5227034 5210356 5216140 5237090
1150.34 5263694 5232392 5204478 5243122 5288412 5296418
1153.23 5291810 5330504 5407474 5444234 5485028 5554970
1156.12 5588328 5612986 5696368 5840100 5991326 6117358
1159.02 6232068 6337512 6469514 6622294 6780882 6961906
1161.91 7141174 7341112 7578350 7793034 8021598 8316440
1164.80 8627690 8940058 9255712 9594314 9965150 10342250
1167.69 10755710 11199240 11649870 12131480 12639510 13160230
1170.59 13707700 14317380 14978830 15644840 16334730 17076160
1173.48 17889730 18744450 19611450 20522120 21492900 22527740
1176.37 23660530 24908180 26221240 27585680 29066940 30695600
1179.26 32459700 34344260 36386250 38619540 41049870 43693690
1182.16 46565040 49690780 53121070 56864420 60952160 65443170
1185.05 70345500 75655820 81413060 87685030 94546820 101974200
1187.94 109930800 118558400 127975800 138112100 148850000 160034000
1190.84 171294600 182573100 194654400 207835900 221434200 235084400
1193.73 248762900 262954700 278362700 294852200 311990600 329422400
1196.62 347065900 364987800 382807600 400257600 417547800 434621300
1199.51 451151400 466822300 481559900 495370700 508303500 520527300
1202.41 532022000 542545700 551821100 559990000 566920600 571817900
1205.30 573540800 571678000 567847600 563875800 559965600 555424500
1208.19 549947500 543874000 537927100 532951000 529782200 528605200
1211.08 529180300 531430300 536339000 546451000 563837600 589116900
1213.98 622202200 661617300 705495200 753005600 799828700 835703400
1216.87 851282900 835537000 780961700 710027800 657455100 594333100
1219.76 493836100 421727500 409109300 422029600 441149400 462422200
1222.66 483919700 504606300 524214700 542857300 560356100 576550000
1225.55 591379300 604773100 616544100 625992700 633033200 637877600
1228.44 639680000 637828400 632424900 623672200 611898000 597764600
1231.33 581922900 564665500 545349200 523618700 500421700 476288200
1234.23 450975100 425050600 399210800 373171000 346951300 321290200
1237.12 296433400 272404400 249399700 227619700 207145400 188032800
1240.01 170226200 153681300 138414000 124466200 111834300 100436500
1242.90 90219260 81067040 72830320 65503780 58981200 53157830
1245.80 47981450 43441200 39457500 35937810 32836700 30137130
1248.69 27740310 25611050 23720760 22047430 20575090 19275620
1251.58 18131900 17126290 16179920 15301560 14530920 13863900
1254.48 13231780 12638120 12098370 11620900 11182030 10765220
1257.37 10374560 10030470 9711340 9389084 9104616 8877662
1260.26 8622636 8392236 8218208 8031004 7853600 7735670
1263.15 7609772 7457738 7320340 7207426 7094156 7001258
1266.05 6927714 6872868 6785754 6694574 6657264 6640748
1268.94 6592984 6529260 6468368 6449834 6461808 6455258
1271.83 6397726 6349898 6331830 6342174 6369022 6393336
1274.72 6417452 6457550 6475358 6489194 6514272 6564118
1277.62 6625970 6681050 6722696 6766884 6823750 6886606
1280.51 6933204 7001912 7070088 7135628 7210228 7299000
1283.40 7385824 7482534 7578666 7676750 7810456 7985716
1286.30 8151186 8286072 8428594 8660298 8987714 9427108
1289.19 9947382 10264720 10046540 9622660 9468348 9545280
1292.08 9660540 9808398 9971192 10106960 10233280 10390390
1294.97 10560520 10765390 10981080 11187710 11395900 11637770
1297.87 11894290 12158930 12437030 12725330 13011550 13327950
1300.76 13644950 13957530 14295820 14670540 15024350 15334790
1303.65 15621900 15954440 16356010 16807570 17252950 17661830
1306.54 18011480 18373300 18823870 19332840 19822210 20322290
1309.44 20836670 21361400 21933050 22608610 23300070 23899290
1312.33 24422440 25045890 25818690 26665570 27517290 28400510
1315.22 29304340 30153210 30939100 31686390 32370180 33183400
1318.12 34190740 35224510 36233230 37345910 38533980 39774300
1321.01 41097700 42524740 44008700 45562160 47156190 48807840
1323.90 50556110 52404500 54280180 56227530 58254040 60404910
1326.79 62714700 65193600 67830370 70636370 73591170 76762360
1329.69 80156010 83708180 87397220 91276580 95352460 99717700
1332.58 104396700 109395500 114674900 120307600 126319800 132683900
1335.47 139358500 146402500 153800100 161562900 169737900 178366200
1338.36 187366000 196785100 206670300 216992600 227543000 238353400
1341.26 249644500 261481400 273666200 286096400 298759600 311671900
1344.15 324683200 337806800 351117000 364515300 377689500 390677800
1347.04 403717800 416847000 429955700 442742700 454655000 466197400
1349.94 477817600 489049500 499117800 507651300 514351600 519267800
1352.83 523102800 526524700 529839500 532728700 533546800 531384900
1355.72 527202200 522627300 517972100 513461000 509837400 508435200
1358.61 511830500 523657200 547778300 581024600 603802500 601426000
1361.51 587211200 580713500 584555500 593524800 609808300 652676600
1364.40 752794600 848305800 807920800 689772300 628894300 620814400
1367.29 627137800 638085800 649629400 656518000 656313900 651649500
1370.18 646193900 641968800 639439100 637338100 634510100 630611900
1373.08 626192100 621568300 616832800 611713900 605938900 599453900
1375.97 592264600 584370000 575724500 566296800 556160400 545387200
1378.86 534682800 524093700 512141800 497376600 480118800 461756800
1381.76 443181700 424622800 406467300 388858200 371881500 355274400
1384.65 338863300 322778200 307262800 292354300 278332300 264804300
1387.54 251272100 238442900 226759300 215868400 205703000 196354000
1390.43 187784400 179821700 172477800 165788300 159759200 154335600
1393.33 149775200 145900800 141730500 137481400 133976200 130850700
1396.22 128046700 125798000 123918800 122198400 120992200 120109500
1399.11 118791200 117364000 116398600 115724100 115231800 114866800
1402.00 114642200 114541100 114581000 114722600 114974400 115148600
1404.90 115008600 114908000 115279100 116016500 117099100 118606400
1407.79 120559100 122981600 125595600 127526800 127739200 126313300
1410.68 125104900 125466800 127148700 129528300 132303700 135178300
1413.58 137833700 140028900 141729200 142984700 143923100 144827500
1416.47 146137000 147606700 148858000 150502700 153246300 155851000
1419.36 156547700 156678600 157867900 159550500 161216000 162763900
1422.25 164085900 165104800 165964200 166524200 166719700 166813200
1425.15 166965200 167108400 167186100 167143700 166922600 166416800
1428.04 165674800 164915300 164368300 163724000 162839100 162533600
1430.93 163605700 166069500 169545000 173522300 177756100 182026400
1433.82 184953500 185302700 184461700 182918700 180340700 177612900
1436.72 174817300 173087000 173249300 174331200 176056800 178351500
1439.61 180233400 180679000 179597000 177572500 175480000 173695900
1442.50 172107900 170551100 169240500 168420400 168156100 168518400
1445.40 169146200 169083600 168835600 170235500 172584000 172888000
1448.29 171107500 168402900 164590200 160189500 156188700 152637700
1451.18 149171400 145684500 142739200 141587500 144733800 158593200
1454.07 180892400 186066400 166321400 147177900 139729800 135507600
1456.97 130400200 126993400 125204200 123449800 121753800 120138200
1459.86 118722100 117579900 116519400 115281200 113625700 111672200
1462.75 109718000 107977400 106769300 105909800 104152900 101679800
1465.64 99678500 98051670 96488300 95021700 93605180 92209260
1468.54 90936610 89889460 89001460 88157000 87581250 87939640
1471.43 88857810 88897820 88789970 88756290 86578380 82940030
1474.32 80061760 78243380 77232140 76354380 74933300 73482980
1477.21 72314740 71088880 69658340 67956710 65944680 63757620
1480.11 61756380 60122070 58642260 57237980 56053060 55149000
1483.00 54614280 54278940 53588090 52386600 50932390 49567900
1485.89 48625020 48215980 47873540 46969980 46054970 45638380
1488.79 45500380 45256180 44761720 44226550 43395320 42463900
1491.68 41896120 41497040 41134800 40811940 40502350 40210320
1494.57 40060510 40658760 41924290 41650990 39927640 38930980
1497.46 38838720 39285220 39412960 38651870 37957590 37714160
1500.36 37581180 37495750 37408170 37218190 37019180 36863610
1503.25 36726890 36638950 37054290 38670920 39681480 38977340
1506.14 39550980 40482690 39657920 39836160 40949020 40201380
1509.03 38421150 37127640 36298750 35859380 35828580 36234700
1511.93 36385590 35888420 35526420 35542480 35716940 35900420
1514.82 35796000 35669730 35957560 36432180 36733440 36408710
1517.71 35661340 35277120 35369160 35973680 36825030 38067160
1520.61 39798130 39549440 37924190 37455110 37055740 36366350
1523.50 36190910 36533580 37409060 38207950 37886500 37220340
1526.39 37108270 37010800 36640420 36424160 36183780 35755400
1529.28 35481860 35403670 35415000 35519800 35578950 35543950
1532.18 35791900 36387860 36837500 36495260 35561480 35083120
1535.07 35056620 35063160 35102510 35140520 35123090 35433110
1537.96 37077130 39105670 38730010 37851180 37570400 36111350
1540.85 35511810 36643140 36674250 35218290 34396000 34137680
1543.75 34019770 34509050 34861080 34148200 33301090 32983040
1546.64 32890110 32874750 32973870 33245850 33640500 33824320
1549.53 33479840 32708650 32012900 31690310 31595590 31575150
1552.43 31586330 31874870 32944780 33622970 32495550 31134800
1555.32 30640850 30534710 30969140 32099220 33279330 34561050
1558.21 34475680 32888220 33243290 34261520 32565800 30049260
1561.10 29097620 28943870 28892110 28798820 28610950 28431960
1564.00 28462050 28337160 27805380 27282550 26968270 26735160
1566.89 26540040 26363630 26344030 26564120 27129230 27345050
1569.78 26397480 25303360 24796260 24460430 24149210 23832030
1572.67 23518500 23223730 22970590 22767540 22914070 24510140
1575.57 26527510 25408600 22678760 21444660 21060380 20754520
1578.46 20514230 20298880 20086600 19886540 19701340 19517300
1581.35 19325920 19118330 18903870 18683680 18490160 18320310
1584.25 18137950 17940120 17779360 17647750 17495100 17331310
1587.14 17160070 16976360 16812430 16632090 16438490 16251690
1590.03 16063330 15865700 15636670 15377240 15155150 14971210
1592.92 14799290 14642210 14493320 14268080 14001770 13791280
1595.82 13618600 13399930 13158100 12938770 12756840 12584820
1598.71 12410230 12239520 12066760 11893140 11739920 11560360
1601.60 11368710 11209480 11060000 10883870 10707050 10544620
1604.49 10393030 10248260 10117330 10009380 9940784 9827470
1607.39 9659686 9530310 9486650 9451222 9298094 9087406
1610.28 8925168 8770464 8659948 8583074 8484632 8387566
1613.17 8331370 8268140 8197212 8177468 8453436 9949670
1616.07 12041600 11463900 9089696 7951448 7722952 7642890
1618.96 7613388 7601264 7618030 7620944 7564180 7505748
1621.85 7551780 7953744 8711556 8738234 7926464 7420820
1624.74 7268276 7154690 7080942 7084900 7319910 7699300
1627.64 7612228 7201978 7030846 7009756 6986256 6976754
1630.53 6976140 6982310 6999256 7035100 7076110 7127826
1633.42 7289700 7905730 9317392 10939700 10768190 8894762
1636.31 7905092 8046488 8058614 7763464 7631780 7680432
1639.21 7788046 7893372 7944488 7990452 8095620 8223948
1642.10 8339502 8426168 8528926 8649828 8826624 9367024
1644.99 10951260 12250720 11449000 10518140 10664320 10806380
1647.89 10729240 10436990 10241890 10303260 10447840 10654930
1650.78 11152780 12972350 15934470 17739320 17814750 15979110
1653.67 14141540 13554250 12759420 12210620 12191780 12279820
1656.56 12396060 12523510 12623160 12722650 12838300 12968930
1659.46 13075990 13179310 13324520 13506920 13827300 14614630
1662.35 15150470 14640630 14049690 13992620 14129240 14331240
1665.24 14610240 15047640 15710020 16542290 17474390 18401220
1668.13 19404540 20619690 20802760 19850170 19445050 19913100
1671.03 20407300 20393740 20406120 20789030 21324130 21957590
1673.92 23083230 25006630 26228750 25757020 25266740 25593400
1676.81 26191950 26811590 27417960 28052410 28798020 29629210
1679.71 30395680 30958270 31404740 31977930 32778570 34010660
1682.60 35491250 36584180 38267540 41363120 42353630 40200140
1685.49 39062580 39669100 40698300 41870240 43222210 44589790
1688.38 45831290 47232110 48943590 50638590 52291760 54150720
1691.28 56201870 58294050 60424430 62637720 65013280 67621580
1694.17 70757180 75473140 81750200 85847490 87525260 91023020
1697.06 96654840 102968000 109759100 117198000 125652500 133796200
1699.95 139922900 144704800 149746200 156371600 164413300 173198000
1702.85 182685900 193108600 204287500 215475100 226983800 239802700
1705.74 253606800 267423600 281473800 296392900 312122300 328513700
1708.63 345489800 362936500 380779600 398862200 417160800 435721300
1711.53 454473200 473425600 492388600 511210100 529803200 548224200
1714.42 566680900 584287900 600795500 617626200 635912500 653929200
1717.31 668360500 681141100 694518300 707415600 719876900 732197200
1720.20 744255000 756048100 767398500 778385700 789154000 799474500
1723.10 809212400 818253200 826699800 834853800 842788200 850385500
1725.99 857454300 864123000 870942100 877176100 880339100 878850800
1728.88 873973000 867912300 862046000 857798300 856849000 861274000
1731.77 872997200 892493300 919136800 951708400 989190700 1025953000
1734.67 1056217000 1081269000 1101775000 1116187000 1124932000 1130230000
1737.56 1134217000 1137541000 1139359000 1137998000 1131277000 1119625000
1740.45 1106373000 1094286000 1084795000 1076964000 1068537000 1059179000
1743.34 1050078000 1041721000 1033330000 1023731000 1012381000 999541100
1746.24 985915500 972088300 958703900 946337200 934543700 922790300
1749.13 911673600 902328900 895610800 890192600 882185900 870299800
1752.02 856609700 842063400 826263600 808618900 789111000 769048900
1754.92 750021600 732467800 716180000 700448900 684947900 670800900
1757.81 658321900 646741400 635429000 624151700 613098400 602750400
1760.70 593278700 582000400 565806000 547232700 529726100 512996400
1763.59 496319600 479991500 464496600 449754100 435481300 421641700
1766.49 408206600 395287900 382878000 370522000 359075200 349625500
1769.38 341458300 333318700 324155700 313922800 304276500 297591400
1772.27 294307200 291065800 283219900 270687600 256791000 243149800
1775.16 230389000 219544900 211535500 206351900 203066100 200051100
1778.06 195884600 190674800 185456000 180907900 177007000 173293900
1780.95 169845600 167022400 164634200 162350800 160085900 157918200
1783.84 155918200 153995000 151888800 149888400 148252100 146529500
1786.74 144150200 140780900 136513500 131737400 126883200 122548700
1789.63 119187400 116823600 114909500 113012800 111692100 110570900
1792.52 108025200 104584300 101614100 98950410 96302650 93641100
1795.41 90887940 88020380 85211090 82557900 80040830 77689180
1798.31 75603690 73841090 72067020 70091840 68315130 66711620
1801.20 64948690 63175560 61412330 59534150 57761670 56130430
1804.09 54575630 53133900 51809680 50523410 49258820 48023080
1806.98 46775560 45438220 44092380 42812180 41574780 40453060
1809.88 39456980 38268560 36896120 35699350 34641270 33544510
1812.77 32452180 31419220 30432580 29477740 28570570 27719150
1815.66 26917530 26154720 25469910 24795300 24063480 23351410
1818.56 22708600 22113730 21531190 20965360 20429590 19905280
1821.45 19412630 18970240 18536580 18101940 17715760 17470750
1824.34 17514900 17375130 16662010 15963210 15551800 15230280
1827.23 14937710 14695790 14563980 14482410 14532600 14498970
1830.13 13870990 13132370 12729970 12460590 12229620 12008320
1833.02 11794310 11625240 11511820 11432020 11346130 11196070
1835.91 10994250 10822480 10652440 10433270 10231800 10063780
1838.80 9940112 9907342 9932018 9838728 9598462 9396620
1841.70 9297696 9190148 9153928 9667752 10314530 9679380
1844.59 8439998 7834432 7560952 7336360 7221542 7197846
1847.48 7061590 6790676 6563240 6399122 6254288 6108386
1850.38 5966302 5849172 5746130 5635506 5519598 5414246
1853.27 5326980 5256244 5184742 5095712 5008312 4932070
1856.16 4856236 4778892 4710984 4628538 4524120 4411226
1859.05 4325484 4265786 4207030 4147950 4088938 4016682
1861.95 3946800 3886502 3831378 3791882 3771406 3751056
1864.84 3728828 3742238 3753602 3687564 3706682 3837710
1867.73 3809768 3896124 4222722 4065878 3583544 3386414
1870.62 3331684 3261622 3217298 3202860 3189296 3160998
1873.52 3135788 3106032 3061356 3028966 3005946 2969856
1876.41 2927656 2891188 2861034 2836670 2807884 2775686
1879.30 2742334 2700404 2672676 2645980 2616422 2612866
1882.20 2599118 2550440 2510918 2503826 2505886 2492514
1885.09 2486940 2513090 2574562 2659752 2686454 2569788
1887.98 2428740 2474966 2615858 2475368 2184128 2060226
1890.87 2035116 2014408 1988224 1962318 1961982 1977900
1893.77 1982318 2025816 2066210 2005968 1928930 1890270
1896.66 1876734 1866632 1843910 1821688 1792312 1766956
1899.55 1760658 1747962 1715672 1681234 1643514 1602898
1902.44 1580776 1570400 1546214 1505234 1464046 1437024
1905.34 1408052 1373120 1340270 1326674 1341750 1315440
1908.23 1242870 1227420 1290810 1284072 1176892 1104752
1911.12 1079400 1061304 1030718 990316 966740 948524
1914.02 923208 893062 872184 874604 890034 934862
1916.91 1196016 1571052 1440718 1008950 827100 789166
1919.80 781904 804890 831324 874438 951574 1040760
1922.69 1071308 968462 855676 813482 797360 795370
1925.59 810316 817080 809982 795584 784984 785350
1928.48 783138 779912 791816 801858 795274 786870
1931.37 784688 789380 803078 817402 831196 831640
1934.26 823612 828888 826748 822768 842334 866872
1937.16 871672 866048 870192 863598 851072 868962
1940.05 894652 908924 949470 1104798 1283116 1201622
1942.94 1010350 946488 952696 987374 1024532 1044288
1945.84 1054248 1052040 1055210 1061604 1059864 1077060
1948.73 1115482 1134832 1141088 1159134 1174224 1202624
1951.62 1244348 1264626 1286960 1312550 1322420 1342084
1954.51 1374836 1383542 1380754 1404284 1444134 1481962
1957.41 1522084 1549392 1555152 1572464 1603962 1636108
1960.30 1673610 1705392 1731320 1747058 1760910 1788852
1963.19 1818502 1839086 1852476 1868014 1921254 2000358
1966.08 2059738 2141136 2189952 2151536 2146574 2175742
1968.98 2171802 2161080 2173828 2202944 2238790 2243154
1971.87 2242896 2283704 2330990 2367522 2397440 2403848
1974.76 2393770 2386320 2396838 2424012 2441302 2431042
1977.66 2433414 2475724 2518720 2525288 2514536 2516860
1980.55 2507714 2473956 2452234 2452428 2466068 2474142
1983.44 2457306 2438576 2445736 2463344 2493292 2509222
1986.33 2490172 2478490 2489536 2473534 2392732 2293328
1989.23 2239424 2212862 2216684 2305720 2464914 2513598
1992.12 2412738 2312458 2269846 2271010 2291026 2286846
1995.01 2201038 2066312 1997852 1980810 1955314 1935638
1997.90 1926398 1924094 1901900 1850622 1807040 1785818
2000.80 1766652 1728452 1691516 1676310 1656450 1611862
2003.69 1566686 1524534 1478552 1438548 1391940 1324420
2006.58 1259546 1215212 1169154 1113962 1061178 996284
2009.48 927310 888372 872154 826258 763152 716820
2012.37 680866 645770 610840 587966 561490 515078
2015.26 481234 503556 548326 517874 462656 448090
2018.15 428300 403854 395504 391930 382124 371318
2021.05 370578 373110 370240 355206 332262 313660
2023.94 321414 341512 349548 350068 354204 351142
2026.83 327108 310316 314614 329160 336358 330472
2029.72 333222 334766 329464 319594 310848 325830
2032.62 335682 315674 307646 333232 357460 368794
2035.51 371766 362180 347812 341602 347752 357916
2038.40 372548 381522 379298 372496 375530 393284
2041.29 405334 406942 407118 393458 387518 415338
2044.19 449154 469770 470046 446364 426680 430026
2047.08 451460 469030 468338 470656 488648 493300
2049.97 476728 481226 508382 530944 555438 562700
2052.87 559846 565336 570358 595252 621086 626556
2055.76 641006 649790 640676 634320 665468 712840
2058.65 729864 727030 738596 755814 771012 791340
2061.54 806774 821938 842660 869258 911154 955016
2064.44 979044 985632 993260 1007606 1026096 1041022
2067.33 1065102 1096914 1133666 1176082 1215436 1251276
2070.22 1285994 1324976 1369402 1403446 1426232 1442234
2073.11 1477204 1529932 1569284 1617662 1690944 1759896
2076.01 1807482 1848586 1900958 1965472 2046598 2133596
2078.90 2204208 2259900 2312072 2390084 2484956 2570278
2081.79 2661760 2762544 2864610 2968316 3069720 3169292
2084.69 3273476 3378332 3490404 3598914 3702276 3819534
2087.58 3945792 4069442 4190972 4310586 4426122 4528736
2090.47 4636614 4759672 4879682 4991286 5110444 5249342
2093.36 5353052 5410176 5485788 5589178 5704304 5804300
2096.26 5861580 5918090 6038702 6209576 6387148 6553014
2099.15 6682960 6779606 6845572 6843696 6798028 6769858
2102.04 6787506 6859628 6996476 7185510 7399576 7622288
2104.93 7857186 8089158 8286432 8444522 8561842 8634394
2107.83 8677652 8710400 8754864 8820138 8910798 9051830
2110.72 9247524 9464412 9670454 9853024 10014740 10174750
2113.61 10332680 10473650 10599340 10708990 10827770 10979260
2116.51 11131130 11267410 11402710 11522490 11620360 11710300
2119.40 11807590 11920790 12039560 12132860 12203470 12274640
2122.29 12353800 12439380 12501470 12540340 12582480 12607230
2125.18 12593080 12570110 12566380 12555200 12534880 12528950
2128.08 12540100 12546490 12537090 12515510 12496270 12497560
2130.97 12508240 12507520 12490510 12464880 12459900 12488790
2133.86 12541490 12595420 12622340 12600120 12466410 12244010
2136.75 12065160 11956830 11868090 11777680 11683650 11585620
2139.65 11518650 11498690 11505620 11543560 11604470 11662010
2142.54 11793600 12061380 12339400 12491070 12461610 12156040
2145.43 11607840 11085880 10750350 10560320 10447310 10350330
2148.33 10245810 10134940 10014060 9870612 9710226 9556174
2151.22 9415694 9294864 9169606 8995546 8785668 8585578
2154.11 8407464 8232940 8061804 7860752 7615606 7379244
2157.00 7151758 6912776 6689944 6477480 6252278 6005864
2159.90 5753920 5511982 5275002 5037928 4789410 4561628
2162.79 4380974 4204890 4001454 3793136 3626208 3486040
2165.68 3330796 3178652 3053406 2930416 2803112 2703718
2168.57 2621676 2530856 2434280 2334816 2234754 2140266
2171.47 2061558 2007770 1972272 1936828 1905462 1882350
2174.36 1850936 1805598 1767382 1737640 1692400 1652268
2177.25 1630796 1623500 1620746 1587052 1548692 1531392
2180.15 1490338 1439446 1434670 1437126 1379970 1301930
2183.04 1290584 1349892 1412202 1431836 1418316 1392584
2185.93 1354568 1309962 1267902 1220598 1174994 1164968
2188.82 1207866 1271338 1310820 1313518 1308982 1320634
2191.72 1321486 1292862 1264636 1247352 1247500 1260950
2194.61 1265868 1259282 1243026 1238702 1258304 1278960
2197.50 1295208 1308786 1311386 1320634 1323396 1307484
2200.39 1307644 1326448 1350370 1370098 1369182 1371066
2203.29 1391592 1399358 1393544 1404498 1423320 1421522
2206.18 1435052 1491722 1544030 1567912 1600980 1645068
2209.07 1699372 1769376 1820612 1848636 1878518 1909022
2211.97 1923132 1924254 1953014 1990810 2000104 1986092
2214.86 1965742 1957338 1973212 2007062 2032354 2056776
2217.75 2103652 2155574 2196002 2220614 2242672 2281686
2220.64 2320802 2364420 2431980 2502160 2569708 2655152
2223.54 2745040 2823530 2896890 2981044 3083804 3164268
2226.43 3206830 3227190 3249318 3303238 3393808 3498422
2229.32 3582552 3646868 3709344 3748270 3779420 3825782
2232.21 3866286 3903928 3930662 3946628 3969042 3996776
2235.11 4024896 4065950 4127900 4180624 4211808 4256142
2238.00 4317880 4363232 4388550 4439858 4510702 4565540
2240.89 4614706 4669140 4735476 4824432 4929478 5072176
2243.79 5267682 5440980 5493926 5414896 5303534 5218612
2246.68 5098064 4910100 4736150 4635778 4593980 4593910
2249.57 4616954 4641690 4674220 4719648 4780782 4853302
2252.46 4892454 4893572 4906440 4945946 4994172 5022000
2255.36 5029572 5017548 4996004 4978228 4960630 4950372
2258.25 4931072 4899100 4866756 4841066 4830240 4805334
2261.14 4742914 4668444 4622116 4594474 4532676 4431760
2264.03 4333032 4242844 4149094 4081512 4059988 4028386
2266.93 3962864 3898812 3836868 3765900 3700390 3650440
2269.82 3597892 3542468 3502960 3468004 3421370 3383604
2272.71 3344244 3275278 3201110 3132980 3070804 3021286
2275.61 2968466 2917896 2874358 2819646 2771600 2724256
2278.50 2645978 2578218 2546814 2511162 2467648 2441158
2281.39 2436990 2418070 2366824 2305780 2263846 2240782
2284.28 2202738 2143016 2102042 2094270 2094150 2080812
2287.18 2055778 2034084 2009566 1968144 1934772 1911326
2290.07 1893544 1894702 1891046 1875084 1861536 1844238
2292.96 1817050 1784926 1763634 1742156 1713058 1701200
2295.85 1684134 1655464 1644204 1636692 1628422 1612760
2298.75 1598066 1599552 1606450 1610914 1589600 1543826
2301.64 1521894 1516318 1495726 1476342 1474552 1493664
2304.53 1498772 1487062 1496166 1528708 1538312 1515126
2307.43 1504350 1524872 1552682 1532034 1493846 1521328
2310.32 1576252 1591272 1585404 1598992 1616842 1607034
2313.21 1561458 1546576 1602100 1642450 1575002 1500780
2316.10 1540324 1632120 1631862 1600058 1655270 1706844
2319.00 1617838 1490620 1506192 1630586 1636190 1516920
2321.89 1535190 1684628 1681228 1561442 1610332 1788516
2324.78 1770286 1597662 1641434 1834984 1821568 1690444
2327.67 1774036 1920724 1790118 1600024 1709382 1846094
2330.57 1674746 1551080 1750744 1838096 1623510 1606984
2333.46 1863626 1836594 1583116 1642074 1829798 1677330
2336.35 1509686 1685966 1765486 1544664 1540436 1758594
2339.24 1669908 1479782 1612848 1695712 1490650 1432748
2342.14 1564572 1497448 1363440 1427104 1456530 1364346
2345.03 1401582 1473364 1378864 1276642 1268082 1230912
2347.92 1151824 1110886 1118228 1130120 1120938 1150592
2350.82 1213262 1192852 1168452 1244942 1228188 1158712
2353.71 1258102 1278200 1213904 1327352 1320414 1205778
2356.60 1321646 1337060 1259980 1377634 1326112 1213282
2359.49 1321998 1271156 1225044 1326648 1207454 1187422
2362.39 1268264 1162330 1202410 1216252 1128926 1162944
2365.28 1076582 1034296 1055970 968482 1003158 995296
2368.17 946942 942158 864434 855554 830400 787494
2371.06 765410 716648 704708 681524 677266 648764
2373.96 605910 587822 561074 566206 570296 540030
2376.85 489352 438868 400982 393424 388756 383284
2379.74 395880 399196 362958 324938 332222 352818
2382.64 351472 350544 360752 361272 348514 333118
2385.53 319270 311644 313686 319046 316156 305030
2388.42 310650 342920 358862 346122 354378 384324
2391.31 393438 376548 363544 382160 427024 453622
2394.21 464528 486774 500464 506600 526510 544948
2397.10 559570 586064 607830 631624 650536 655836
2399.99 665248 681180 724458 779386 813644 853520
2402.88 911074 946254 960464 990978 1036830 1062810
2405.78 1068434 1086010 1119156 1156560 1191556 1214410
2408.67 1246246 1295040 1333116 1352914 1381208 1428220
2411.56 1479872 1524306 1551576 1571474 1596896 1614824
2414.46 1622640 1645060 1695844 1750794 1788772 1802650
2417.35 1822888 1869756 1901464 1907694 1924926 1958282
2420.24 1992250 2015896 2017886 2020886 2044130 2085006
2423.13 2122466 2119980 2102524 2111494 2133858 2134198
2426.03 2122664 2118612 2120608 2116804 2121210 2146794
2428.92 2175752 2195160 2213140 2234166 2230770 2196732
2431.81 2180894 2169096 2135426 2118500 2120220 2117336
2434.70 2105590 2089114 2101836 2117414 2087556 2066990
2437.60 2074642 2059780 2043930 2065428 2112494 2150278
2440.49 2176178 2213898 2277602 2395170 2515616 2506692
2443.38 2358980 2182970 2058738 1993204 1954638 1926882
2446.28 1911424 1902044 1928150 2020768 2171656 2337374
2449.17 2385436 2220914 1940974 1677842 1479634 1339690
2452.06 1238028 1154274 1082816 1030182 1007924 1002160
2454.95 972030 929450 917844 916178 895220 847916
2457.85 783266 744738 735794 734332 733334 729320
2460.74 724710 713690 697168 696552 700600 688722
2463.63 665078 654902 669736 670670 652022 633240
2466.52 617782 595808 575020 578234 591080 590016
2469.42 585144 575116 565080 565344 568290 571670
2472.31 590450 624536 625212 593288 596918 612672
2475.20 615564 620590 615768 606492 620064 645868
2478.10 662198 673916 706344 743386 749578 736308
2480.99 733270 753978 787672 817212 837478 834506
2483.88 833670 862216 887896 888010 877476 889234
2486.77 934554 970240 977886 958780 943546 950930
2489.67 962284 986566 996670 982662 990888 1016362
2492.56 1031664 1041260 1050036 1068036 1094578 1102044
2495.45 1089698 1070512 1056672 1071690 1115112 1149636
2498.34 1172254 1189272 1186564 1180980 1186190 1187596
2501.24 1199442 1221508 1253740 1288998 1296772 1298970
2504.13 1317544 1337434 1334786 1314048 1291380 1291456
2507.02 1324518 1351606 1351914 1356406 1375282 1395148
2509.92 1394152 1368342 1350762 1347164 1343806 1336356
2512.81 1320106 1315486 1321182 1301508 1287310 1301280
2515.70 1329916 1357702 1352486 1322894 1325310 1338218
2518.59 1321950 1319280 1326156 1310242 1316514 1314902
2521.49 1286770 1294672 1329072 1363922 1414588 1470472
2524.38 1508582 1500482 1469478 1472142 1465616 1440124
2527.27 1458702 1498796 1527098 1537246 1543112 1579796
2530.16 1626648 1648682 1658090 1664396 1684850 1718936
2533.06 1745966 1764040 1780934 1792124 1801802 1842868
2535.95 1908346 1953606 1982706 2009042 2042350 2090586
2538.84 2132542 2154966 2164782 2189852 2240342 2286150
2541.74 2318664 2358960 2447040 2548046 2592974 2598830
2544.63 2634678 2702282 2758974 2824734 2917720 3021888
2547.52 3115594 3194604 3283222 3355462 3401062 3469832
2550.41 3571772 3689272 3796868 3879762 3966338 4082780
2553.31 4204114 4281206 4345280 4437400 4541806 4636834
2556.20 4729228 4824410 4915068 4996744 5082656 5192372
2559.09 5285744 5342550 5398142 5442730 5494636 5559394
2561.98 5592866 5611026 5647780 5675352 5682856 5686576
2564.88 5682362 5672480 5684578 5710864 5723752 5756612
2567.77 5817556 5866930 5920292 6011464 6093146 6111418
2570.66 6096830 6100564 6157620 6292718 6481154 6710146
2573.56 7025522 7389020 7576814 7279738 6555318 5904178
2576.45 5595536 5525956 5552836 5575670 5552226 5521874
2579.34 5503394 5507730 5570118 5675096 5774650 5855504
2582.23 5933466 5985584 5990092 5963928 5935604 5916392
2585.13 5882498 5832104 5769224 5671634 5565052 5475838
2588.02 5391462 5277756 5138914 4992254 4844706 4691898
2590.91 4525972 4370332 4220806 4050826 3864368 3687860
2593.80 3514854 3350278 3200022 3032920 2873268 2731194
2596.70 2578906 2426020 2293406 2194050 2107966 2009860
2599.59 1897606 1788712 1713198 1638572 1552172 1488926
2602.48 1448866 1406320 1349340 1305048 1286302 1253772
2605.37 1211062 1186282 1142402 1091188 1064448 1038728
2608.27 1016930 1027232 1038764 1023486 1014820 1016958
2611.16 1015924 1008424 998264 1005300 1019886 1024164
2614.05 1010790 972364 947316 957018 954322 923324
2616.95 932082 970584 966778 941396 942734 969776
2619.84 1006512 1026448 1018986 1008748 1004970 1007400
2622.73 1014860 1020250 1014262 1010738 1024388 1039308
2625.62 1056250 1080408 1110136 1149962 1175820 1162854
2628.52 1143414 1151640 1178058 1189488 1166286 1135120
2631.41 1121416 1133734 1175098 1209924 1197472 1182684
2634.30 1213000 1239550 1249220 1257232 1230350 1209706
2637.19 1227552 1243628 1265126 1295566 1302556 1291418
2640.09 1288118 1279360 1267512 1288678 1300426 1283326
2642.98 1300514 1328594 1329974 1313900 1284764 1267178
2645.87 1287536 1308212 1301670 1276268 1245456 1243136
2648.77 1237580 1217206 1222674 1241226 1241266 1217880
2651.66 1189012 1183334 1201034 1211198 1211088 1195802
2654.55 1185560 1195856 1191300 1186646 1212042 1217948
2657.44 1174560 1142522 1142786 1147156 1134818 1092020
2660.34 1080508 1132286 1164288 1116016 1055484 1039786
2663.23 1037020 1029766 1008864 975394 960848 951122
2666.12 936948 903976 857384 863200 881736 867124
2669.01 848000 846816 840164 799654 758162 748972
2671.91 743006 726210 717040 705646 694000 688018
2674.80 675962 668304 661152 640294 637610 646688
2677.69 653386 686288 698536 663108 651620 687206
2680.59 714500 702356 689378 696252 703900 722554
2683.48 738224 723262 714666 726106 720684 707250
2686.37 711064 750846 800626 807230 789080 778168
2689.26 794004 814882 820392 820466 806730 792656
2692.16 788944 787588 793314 809446 818134 804880
2695.05 798548 821826 827778 810876 817438 856132
2697.94 913430 945022 915356 856152 821652 820652
2700.83 851884 887928 882560 882554 929980 975700
2703.73 996926 1023916 1078480 1143156 1181560 1184254
2706.62 1161700 1150098 1150078 1128326 1130258 1157452
2709.51 1166700 1202644 1268208 1271588 1229300 1231302
2712.41 1246500 1242786 1250730 1273026 1282394 1283140
2715.30 1276122 1237738 1191532 1175882 1175138 1181348
2718.19 1199612 1205312 1160032 1117920 1097140 1057388
2721.08 1030186 1029642 1041888 1048464 1039456 1026438
2723.98 1010702 992320 993058 997958 977210 979348
2726.87 1003942 990824 980796 982158 951144 916264
2729.76 878186 831460 848862 911412 945978 969564
2732.65 993992 979322 951922 959282 983726 995188
2735.55 1013024 1034878 1034838 1022756 996184 954056
2738.44 935158 956632 986076 1010708 1054710 1088718
2741.33 1084384 1061022 1038350 1045238 1064500 1088328
2744.23 1117444 1119328 1103934 1107956 1123958 1131486
2747.12 1136428 1164920 1202974 1225172 1240788 1266104
2750.01 1288970 1296056 1312320 1342248 1363562 1373572
2752.90 1402000 1444158 1490448 1539078 1545014 1528302
2755.80 1553970 1596600 1630174 1674798 1726312 1760676
2758.69 1791052 1853320 1926052 1983742 2021968 2060944
2761.58 2125116 2193886 2247894 2273080 2306528 2387802
2764.47 2470316 2514844 2532812 2567636 2635126 2720074
2767.37 2817542 2883716 2926060 2994008 3059290 3132840
2770.26 3241574 3362196 3462470 3533770 3618438 3712272
2773.15 3805988 3914276 3984520 4033308 4092396 4143836
2776.05 4230950 4357554 4496276 4630798 4728940 4759706
2778.94 4748018 4740532 4735536 4766706 4850028 4933818
2781.83 4990358 5020862 5049664 5081044 5113218 5173790
2784.72 5257572 5323986 5397658 5467976 5509932 5553568
2787.62 5598650 5678418 5796994 5854040 5845154 5872580
2790.51 5923268 5952458 5965408 5987728 6045796 6112818
2793.40 6173350 6228294 6289802 6391802 6486458 6540722
2796.29 6625434 6729668 6785876 6799770 6747768 6647224
2799.19 6598424 6577148 6560116 6586082 6633484 6681296
2802.08 6695508 6680510 6693186 6724200 6706848 6661722
2804.97 6684198 6768866 6821070 6807130 6758578 6709388
2807.87 6688332 6690536 6705002 6716676 6719446 6703280
2810.76 6668630 6687532 6724112 6734282 6750544 6767896
2813.65 6819050 6885064 6902784 6892028 6904046 6921102
2816.54 6927346 6962430 7006026 7028776 7044402 7089070
2819.44 7174218 7286556 7416396 7544580 7604410 7634624
2822.33 7722156 7806820 7906348 8091024 8255186 8342288
2825.22 8475670 8669386 8817192 8941096 9103052 9295046
2828.11 9465558 9616538 9812516 10024130 10233040 10479900
2831.01 10751260 11023490 11282330 11527970 11786860 12054370
2833.90 12276450 12476540 12707300 12970090 13253890 13528420
2836.79 13781580 14007380 14200610 14414070 14646910 14866580
2839.69 15094600 15320930 15543420 15750290 15893610 16019860
2842.58 16209240 16406850 16566200 16701360 16834160 16973100
2845.47 17127050 17296380 17438030 17543970 17671380 17803710
2848.36 17926540 18067940 18224940 18384680 18512850 18646340
2851.26 18806450 18933880 19047990 19187730 19329560 19428690
2854.15 19478440 19526970 19625660 19767440 19905650 20012830
2857.04 20075020 20105100 20151610 20208810 20229320 20253640
2859.93 20315170 20410520 20530500 20665090 20842030 21046700
2862.83 21249690 21442410 21562380 21558430 21464610 21363460
2865.72 21275680 21167720 21090220 21061650 21049570 21042060
2868.61 20980750 20860260 20732050 20580530 20445650 20377220
2871.51 20299640 20192010 20093210 19967270 19820920 19733910
2874.40 19686530 19588610 19455940 19348270 19294570 19258750
2877.29 19199750 19121750 19055980 19000100 18929570 18874090
2880.18 18827190 18780430 18745830 18719790 18690780 18666130
2883.08 18678530 18707000 18715770 18734410 18814760 18882100
2885.97 18903930 18975290 19083220 19184530 19285960 19372070
2888.86 19480110 19634910 19821690 20055060 20339860 20696710
2891.75 21090010 21369460 21530950 21683590 21850410 22029240
2894.65 22229830 22504230 22862770 23282730 23726390 24164340
2897.54 24643520 25160780 25638860 26113450 26622650 27172790
2900.43 27771000 28388630 29036110 29701610 30375000 31106080
2903.32 31893240 32722700 33607220 34541640 35490780 36434150
2906.22 37435350 38475630 39511120 40557540 41590820 42689290
2909.11 43966470 45396430 46845680 48221270 49542850 50842980
2912.00 52157970 53541540 54970980 56363690 57693740 59065500
2914.90 60493510 61913370 63351920 64816830 66227010 67526260
2917.79 68744470 69910740 70987050 71928780 72780820 73601140
2920.68 74361590 75081790 75868800 76645880 77312830 77999330
2923.57 78748600 79405480 79927980 80374510 80759390 81080840
2926.47 81398750 81810270 82300480 82916850 83740180 84362300
2929.36 84316300 83861580 83481120 83233430 83023200 82823560
2932.25 82641670 82608700 82873580 83520070 84602820 86052140
2935.14 87730180 89553160 91402600 93150550 94706700 96048550
2938.04 97258780 98404460 99469820 100503500 101667600 103023800
2940.93 104470900 105572000 106010300 106193100 106466200 106819300
2943.82 107250700 107658200 107980700 108329000 108637600 108806900
2946.72 108837500 108721700 108480400 108132000 107702200 107143200
2949.61 106468800 105793800 105061500 104213200 103328400 102507000
2952.50 101758800 100947600 100016500 98996710 97958910 96995010
2955.39 96093330 95267190 94624540 94052660 93135060 91975540
2958.29 90844420 89578790 88192940 87024190 86274140 85800500
2961.18 85529110 85502860 85675200 86106310 86955790 88403590
2964.07 90507330 93325120 97088310 102157100 108677000 116422600
2966.96 125645600 138108700 157827400 191730800 240216000 277482000
2969.86 274483300 242936800 210355500 184554500 162921300 144282100
2972.75 129084200 117439900 108699700 102125000 97092140 93201270
2975.64 90391030 88414740 86813720 85376340 84160060 83329100
2978.54 83005540 83111340 83454970 83879700 84353500 84965600
2981.43 85809930 86897800 88140300 89450240 90764810 91967230
2984.32 93033680 94112700 95233330 96331090 97377700 98300010
2987.21 99130580 99950540 100788400 101613900 102404800 103215500
2990.11 104032000 104782100 105522000 106340900 107212900 108096200
2993.00 108988000 109949900 111014900 112138900 113231000 114256600
2995.89 115231400 116198600 117223100 118308300 119404900 120434500
2998.78 121416100 122400500 123338900 124169600 124923700 125609200
3001.68 126197700 126712500 127155700 127521000 127834400 128033300
3004.57 128020600 127845200 127620700 127474300 127372800 127080100
3007.46 126564900 126054000 125578700 125038400 124465500 123905100
3010.36 123441500 123323100 123560000 123996300 124696700 125838300
3013.25 127491300 129627000 132008900 134204900 136019600 138034000
3016.14 140972500 142121700 136954100 128204200 122353400 120303000
3019.03 120003600 120345600 120996300 121891000 122833200 123551900
3021.93 124028000 124443000 124879400 125297300 125696400 126016200
3024.82 126196300 126297300 126444400 126541300 126417000 126103000
3027.71 125591200 124855400 123887200 122656800 121219700 119593000
3030.60 117773000 115760100 113553800 111169600 108613900 105982200
3033.50 103342000 100694200 98114400 95553950 92988750 90494050
3036.39 88040220 85566670 83096490 80673150 78339010 76071110
3039.28 73835060 71696940 69626350 67529390 65549520 63839150
3042.18 62405850 61183920 60103970 59143390 58248680 57386100
3045.07 56565610 55793640 55044320 54286730 53541720 52873210
3047.96 52284310 51740750 51242780 50746060 50267390 49878220
3050.85 49555060 49249380 48983480 48779520 48639260 48549000
3053.75 48480420 48380810 48226670 48059080 47883920 47671330
3056.64 47456730 47242480 47014730 46817420 46642140 46441590
3059.53 46233720 46043710 45864220 45700930 45593260 45533700
3062.42 45462850 45356710 45305940 45340000 45343770 45244300
3065.32 45070070 44913830 44793440 44657110 44562190 44521990
3068.21 44490290 44454100 44374910 44248900 44115260 43990400
3071.10 43844990 43696150 43604940 43484460 43288150 43079850
3074.00 42848880 42555510 42244020 41971470 41732410 41480220
3076.89 41183690 40931980 40781170 40643490 40432220 40157610
3079.78 39930300 39725780 39458330 39194180 38990430 38774510
3082.67 38504480 38187490 37812910 37443480 37107300 36786840
3085.57 36480880 36186500 35918800 35655780 35388240 35137730
3088.46 34862920 34539960 34204210 33864250 33523670 33089010
3091.35 32521940 31959420 31451620 30907580 30349430 29857450
3094.24 29420380 28965120 28457190 27967780 27529330 27100540
3097.14 26718270 26397210 26100440 25812520 25506010 25169130
3100.03 24837710 24512870 24164610 23763760 23345260 22990420
3102.92 22656260 22236850 21790730 21392590 20986230 20604780
3105.82 20251980 19842910 19423540 19036640 18680730 18365820
3108.71 18030430 17641940 17264180 16873990 16465380 16131760
3111.60 15853030 15548000 15215580 14854560 14454260 14067090
3114.49 13754080 13486670 13183990 12837600 12545810 12335880
3117.39 12080890 11772640 11479320 11172540 10885420 10691640
3120.28 10567900 10391530 10141070 9914802 9721010 9497780
3123.17 9261570 9065250 8897300 8719632 8551930 8397138
3126.06 8211640 8059174 7962744 7818160 7618708 7440890
3128.96 7301154 7193486 7102370 7014584 6915848 6793176
3131.85 6684666 6556210 6387856 6265198 6218696 6172880
3134.74 6070558 5949836 5871418 5854220 5850578 5803836
3137.64 5700490 5546720 5442622 5456508 5512220 5497846
3140.53 5388368 5231774 5099814 5050088 5031892 4973028
3143.42 4914508 4885822 4858726 4813428 4744974 4700290
3146.31 4703464 4715780 4706534 4665284 4658450 4686286
3149.21 4672834 4660742 4669364 4582620 4431938 4412884
3152.10 4522474 4562230 4479090 4379756 4295110 4216658
3154.99 4189604 4195788 4184310 4187378 4223086 4222026
3157.88 4160936 4079368 4046472 4068512 4053784 3980686
3160.78 3924428 3897328 3903174 3958992 3983140 3934976
3163.67 3874010 3870852 3894008 3878848 3834326 3785482
3166.56 3748816 3744752 3752826 3763158 3752432 3721050
3169.46 3711280 3709474 3670734 3617520 3613740 3597724
3172.35 3522330 3469526 3452108 3421566 3416186 3448530
3175.24 3479748 3477162 3446176 3448636 3457676 3411564
3178.13 3358318 3341176 3291074 3188284 3132008 3136638
3181.03 3145634 3135740 3110802 3108850 3114196 3079070
3183.92 3042980 3009012 2963138 2916632 2888138 2862666
3186.81 2807420 2763562 2760072 2774872 2768678 2705074
3189.70 2633282 2611912 2642200 2654754 2579248 2495666
3192.60 2483400 2499202 2501540 2484408 2448802 2419094
3195.49 2425794 2387164 2319428 2318654 2323960 2309946
3198.38 2310738 2271416 2202096 2181038 2181414 2148352
3201.27 2104672 2107928 2113906 2051560 1995752 1988572
3204.17 1982802 1963996 1956722 1944192 1924624 1924056
3207.06 1918936 1899098 1878966 1834140 1799724 1831466
3209.95 1879796 1844380 1765440 1762774 1807456 1767502
3212.85 1685776 1699948 1713478 1669272 1661510 1683272
3215.74 1687862 1642232 1598250 1594110 1578366 1554728
3218.63 1566592 1611318 1631682 1576834 1522844 1537092
3221.52 1563598 1549626 1498038 1439772 1433522 1489584
3224.42 1549676 1554502 1499518 1448102 1411120 1360328
3227.31 1342094 1374200 1403290 1407070 1418044 1451750
3230.20 1449876 1411806 1411314 1443916 1408320 1294076
3233.09 1235428 1274410 1314730 1312740 1314866 1324108
3235.99 1339570 1339640 1314888 1338176 1385062 1364374
3238.88 1293886 1254468 1265082 1275398 1272548 1252624
3241.77 1215620 1190918 1201842 1247018 1272236 1285952
3244.67 1272778 1191378 1149228 1169452 1166918 1149324
3247.56 1160058 1175564 1133134 1085696 1121688 1190344
3250.45 1213922 1196930 1141934 1117684 1184228 1246110
3253.34 1245446 1231970 1195088 1103174 1070382 1119548
3256.24 1149886 1145494 1110540 1102928 1129060 1094120
3259.13 1032610 1040512 1074588 1077362 1078108 1092750
3262.02 1088442 1041538 984676 998346 1054916 1062544
3264.91 1005682 974668 1006356 1012794 973360 950234
3267.81 965018 953706 937640 957516 932898 872042
3270.70 879858 958902 1039894 1062850 1032852 989782
3273.59 950500 942068 964556 971990 979474 1014520
3276.49 1024372 1001014 997116 1001094 959388 911444
3279.38 925142 993812 1048142 1051026 1019176 997806
3282.27 1016094 1010034 995624 1007754 979110 935218
3285.16 951578 1010944 1047120 1022140 1023512 1119424
3288.06 1168796 1096332 1014780 987304 993836 1037030
3290.95 1099464 1145098 1136684 1063476 973960 952742
3293.84 1013760 1036812 993312 977332 992862 984808
3296.73 978140 998676 1026790 1033926 1029120 1080450
3299.63 1130422 1118692 1097164 1050344 981580 931864
3302.52 925720 937952 923312 917782 983254 1023036
3305.41 986066 978492 1000052 1015878 1026702 1042558
3308.31 1077558 1118692 1136884 1107312 1054514 1035210
3311.20 1034894 1002890 916734 868392 893020 938754
3314.09 967618 961084 982508 983426 953818 978882
3316.98 1019480 1009264 979596 948694 924112 936486
3319.88 904040 847416 862536 877644 867962 868718
3322.77 876036 854670 817976 844154 889718 877632
3325.66 848064 851044 883936 906986 884870 824308
3328.55 754934 711500 710200 691536 662914 712766
3331.45 788268 764598 696106 675156 668554 677450
3334.34 712806 695650 662676 671388 660288 606754
3337.23 576260 571106 590368 660714 680574 671318
3340.13 678458 635062 576652 578934 578510 563674
3343.02 594882 632706 615540 563212 511358 505122
3345.91 544350 584362 628646 672384 666556 647462
3348.80 655652 600230 498288 471142 514426 569856
3351.70 595926 584270 602846 656272 673538 648350
3354.59 593112 565180 603572 625324 603436 607086
3357.48 626480 661384 692876 687392 648034 579754
3360.37 558254 598920 640510 671178 666912 677840
3363.27 726430 771942 791018 762782 715934 677024
3366.16 667892 711628 748890 754214 722430 656618
3369.05 707504 852170 886952 877804 903126 923678
3371.95 939878 957898 973384 1008984 1052610 1047380
3374.84 1059688 1101880 1101552 1076418 1073940 1126712
3377.73 1235558 1293300 1267188 1213036 1181606 1199578
3380.62 1248514 1310898 1342730 1345740 1348900 1403446
3383.52 1482310 1444156 1333948 1304472 1341214 1394984
3386.41 1435978 1434484 1413234 1390512 1366312 1354646
3389.30 1366724 1385496 1413250 1432676 1467824 1550240
3392.19 1593676 1539510 1465440 1426886 1385420 1358012
3395.09 1363894 1392878 1455072 1495124 1512444 1559244
3397.98 1566270 1503124 1430646 1401314 1415516 1472634
3400.87 1550102 1579772 1578502 1585182 1584388 1561374
3403.77 1565188 1598480 1590900 1576868 1596698 1631936
3406.66 1691700 1729598 1732108 1733638 1755154 1796110
3409.55 1894648 2010404 2023740 1992046 2029926 2108780
3412.44 2195586 2296482 2389760 2479514 2565324 2648014
3415.34 2756880 2867380 2941150 3054974 3225322 3341922
3418.23 3430542 3601968 3822394 4047340 4222348 4353040
3421.12 4568300 4791346 4987376 5242500 5517142 5775162
3424.01 6011492 6242878 6513366 6807394 7137322 7504204
3426.91 7831812 8137326 8478002 8872990 9261466 9611876
3429.80 9983946 10390380 10784740 11126580 11450630 11840390
3432.69 12337680 12800590 13194950 13587430 13957180 14308440
3435.59 14643040 14987120 15350480 15696060 16044630 16407630
3438.48 16725750 17024200 17337630 17618090 17862530 18119140
3441.37 18429820 18781340 19110420 19378470 19595220 19801330
3444.26 20052050 20310310 20538790 20808660 21156440 21450980
3447.16 21594100 21675610 21730940 21714720 21595740 21455650
3450.05 21518440 21818200 22215140 22701280 23317860 24027250
3452.94 24713620 25279840 25680480 25888480 25897440 25783160
3455.83 25677840 25605590 25507510 25331590 25153500 25084570
3458.73 25012710 24931950 24950170 24939220 24871540 24841860
3461.62 24845160 24873740 24862200 24768380 24651990 24558050
3464.51 24420270 24227730 24051510 23895870 23700910 23436240
3467.40 23120800 22823830 22598550 22313670 21960140 21679210
3470.30 21377580 21023440 20733750 20442200 20033370 19601890
3473.19 19224230 18874080 18556770 18194230 17734260 17282180
3476.08 16917320 16551330 16135890 15725350 15316960 14888850
3478.98 14526420 14220820 13882170 13517840 13159240 12806090
3481.87 12447770 12100090 11777430 11453470 11089970 10708120
3484.76 10352460 10032000 9748064 9441200 9109534 8816596
3487.65 8547664 8329248 8176224 8049472 7963226 7867950
3490.55 7736904 7567982 7367054 7184882 7012502 6885866
3493.44 6824816 6780760 6731868 6609082 6424248 6262230
3496.33 6088724 5892036 5710812 5531524 5392628 5318888
3499.22 5264590 5170498 5037816 4934270 4856240 4736976
3502.12 4651266 4626874 4491156 4269806 4120562 3984020
3505.01 3807408 3668460 3618302 3531032 3358948 3233398
3507.90 3198382 3143842 3035376 2865834 2703736 2645336
3510.80 2628550 2576136 2458172 2351084 2300048 2197974
3513.69 2066932 2009484 1971568 1883066 1765314 1683314
3516.58 1643712 1604500 1566960 1544624 1535290 1508392
3519.47 1431964 1319148 1265956 1274676 1229230 1181970
3522.37 1208026 1220020 1199196 1144580 1060370 1050258
3525.26 1066412 1015850 994460 995580 957136 910596
3528.15 876822 857928 796798 740608 751438 732234
3531.04 644004 558680 537282 542044 492970 440260
3533.94 424888 419302 456664 518452 529194 490398
3536.83 432230 378236 364424 353268 300696 283854
3539.72 271696 179852 114720 144314 239226 329024
3542.62 350384 337360 305312 308498 363720 287914
3545.51 170334 291484 468596 383320 229800 168720
3548.40 114086 92928 123128 168772 202460 223460
3551.29 319830 444508 405030 292520 232210 158918
3554.19 86754 87560 140390 150686 169432 219686
3557.08 223086 203262 207146 183088 157114 214468
3559.97 228612 159216 139318 179140 175570 150834
3562.86 208720 246990 231802 243638 357538 581856
3565.76 782450 734954 539038 696004 860284 526744
3568.65 152798 42904 59022 106014 108282 28736
3571.54-51138-71964-100358-136584-112686-66648
3574.44-83116-129542-107574-43208-19018-72162
3577.33-165350-203068-145478-27830 61834 35592
3580.22-73612-157638-161770-120304-133912-163624
3583.11-145884-140560-117004-60808 52382 409934
3586.01 770944 590734 219226 344918 926432 943644
3588.90 273110-91856-128378-154290-150750-83404
3591.79 32958 193848 246020 89894-52142 31152
3594.68 260908 325128 179860 12006-51850-11822
3597.58 44228 74344 85220 88406 79694 140904
3600.47 230172 172462 40944 7472 29222-1996
3603.36-39830-33410-32210 9298 78642 187260
3606.26 414830 442736 205742 177522 792414 1562466
3609.15 1234526 383758 22584-48106 87400 608820
3612.04 1074170 781430 299016 308150 494948 430294
3614.93 241936 124042 49998 139570 524040 716186
3617.83 462720 517010 1231190 1490484 828582 374534
3620.72 313494 198146 99868 107514 152246 136316
3623.61 67344 43886 58984 117898 223144 272108
3626.50 269804 585772 1604268 2237724 2179266 2651750
3629.40 2319264 1010754 350392 181198 100448 81618
3632.29 141124 367138 574530 443778 207752 121178
3635.18 92318 88604 128990 153734 204564 281546
3638.08 269974 191874 142956 140292 131564 106908
3640.97 125948 197134 243786 219818 188112 159252
3643.86 150150 210584 293018 409766 684614 1163282
3646.75 1547184 1284214 884748 1716502 2998318 2472186
3649.65 1389772 1426622 1604736 1224970 596032 295438
3652.54 228764 181374 181504 249474 374824 750744
3655.43 1678030 2087644 1210996 404308 196672 177250
3658.32 205784 225142 213178 195156 213506 256004
3661.22 257974 226218 195852 218248 260328 242842
3664.11 207436 227144 259964 296306 334476 357304
3667.00 379720 628250 1253502 1466102 1005862 1294422
3669.90 2979308 3632580 2007816 677196 400766 362220
3672.79 415274 650608 1328170 2312682 2916706 3582136
3675.68 3484398 1850918 718050 539222 494170 561892
3678.57 829508 938880 714806 552214 476410 384054
3681.47 332828 329856 357102 405138 419178 434040
3684.36 466022 419154 328440 346552 487646 775622
3687.25 1958370 3998126 3954092 1835324 703502 725568
3690.14 1168942 1712518 1537196 845982 539788 527564
3693.04 507050 480758 505076 534302 530274 522082
3695.93 529646 514942 490704 471766 480654 514634
3698.82 520002 478130 483392 650420 1117688 1530106
3701.72 1271236 771094 564370 501870 475112 483092
3704.61 524730 557728 558180 549576 531844 502876
3707.50 551876 802684 1410946 1761090 1277330 820946
3710.39 902952 1497366 2806418 3277096 2026194 921554
3713.29 625062 650816 739292 660866 580164 613432
3716.18 635816 635152 626666 693798 888836 971756
3719.07 790360 623466 610028 647336 825876 1187952
3721.96 1251858 944774 732982 735300 877868 1015102
3724.86 938694 956180 1352060 1432844 998252 744056
3727.75 723310 729294 703804 711434 788774 877366
3730.64 1106720 2037548 2945266 2338494 1279796 1036906
3733.54 1352374 1931782 2250162 1977770 1900678 2751752
3736.43 2870866 1691812 1131922 1261794 1175294 953318
3739.32 845142 899724 1097722 1216128 1051822 878096
3742.21 951902 1401548 2819060 5564194 7134614 5107320
3745.11 2278072 1154244 987104 1052660 1119170 1158248
3748.00 1827178 3894256 5153532 3516684 1653346 1330124
3750.89 2203184 4431966 5373102 3346268 1516952 1091156
3753.78 966930 929888 1030640 1167768 1408136 1509280
3756.68 1225904 970728 945274 1072806 1412006 1862610
3759.57 1849308 1308192 963320 939562 977766 981858
3762.46 969598 957856 951236 995504 1196164 1615682
3765.35 1800736 1412236 1022472 950052 1018718 1056916
3768.25 1103648 1546686 2315962 2293288 1550222 1182084
3771.14 1141492 1086296 1046010 1029864 1024700 1055226
3774.03 1050308 993370 972196 990410 1042242 1093178
3776.93 1137108 1244600 1355322 1611936 1998524 1881786
3779.82 1412272 1227962 1259956 1301152 1293438 1252068
3782.71 1235248 1298254 1445448 1589154 1573998 1405676
3785.60 1289338 1306688 1329328 1309328 1301380 1304812
3788.50 1318658 1355802 1383686 1403152 1407504 1397072
3791.39 1384696 1359554 1346062 1357078 1356228 1394782
3794.28 1478276 1561316 1836314 2310822 2292260 1864838
3797.17 1705512 1668220 1608974 1642266 1749212 1946464
3800.07 2726056 4723038 5657674 3913550 2413266 2177496
3802.96 2027490 1863798 1793110 1777802 1846996 2028120
3805.85 2892522 4265880 4063070 2561558 1771860 1640156
3808.75 1686540 1715608 1636116 1556614 1540648 1577404
3811.64 1660832 1705898 1698702 1669356 1659672 1708470
3814.53 2093606 3706188 5561108 4732198 2611540 1759124
3817.42 1676310 1743638 1781580 1832518 2143786 2871692
3820.32 3456588 3658912 3647258 2863554 1980518 1690286
3823.21 1660982 1689294 1637804 1580284 1594092 1760570
3826.10 2065834 2032344 1741182 1606330 1546324 1503680
3828.99 1473726 1474144 1546684 1862976 2458432 2539280
3831.89 1934566 1525606 1450488 1515588 1944278 2576434
3834.78 2432662 1745250 1477390 1681910 3035932 5233030
3837.67 4971072 2673114 1570398 1592962 1726442 1930172
3840.57 2118204 1751208 1302468 1228320 1442196 1865786
3843.46 1887604 1440806 1153892 1040868 989390 990680
3846.35 997518 995890 1016892 1043224 1099626 1161796
3849.24 1153814 1081464 1082956 1696846 3485582 4427370
3852.14 3071246 2442316 4665000 7251130 6274114 3080026
3855.03 1328454 974270 1045298 1269320 1293432 1070918
3857.92 905744 839576 800294 839628 940772 1043230
3860.81 1361462 1653476 1360296 955156 921554 1050870
3863.71 1371244 2124466 2531984 1831108 1069992 828564
3866.60 756550 740618 840250 1206316 1822078 2601472
3869.49 3347304 2718536 1325616 827530 808356 794292
3872.39 814104 979790 1385826 1637430 1290312 850678
3875.28 725602 692258 685356 674132 659796 677130
3878.17 715584 824698 1252056 1770310 1659654 1210536
3881.06 917602 748682 771306 919622 936534 840770
3883.96 879638 1425802 2619074 2945240 1819644 921438
3886.85 756010 720036 683296 710894 769940 800900
3889.74 891260 1534584 2393170 2161770 1316734 955506
3892.63 898616 915046 964002 916706 822746 802346
3895.53 822496 848584 891008 962418 1037190 1241582
3898.42 1873142 2300562 1751468 1118294 1142246 1798584
3901.31 2402956 2030504 1371804 1346018 2068632 2656604
3904.21 2115996 1433108 1389440 1436556 1281966 1121276
3907.10 1083016 1111354 1100156 1080644 1102628 1111110
3909.99 1097572 1148108 1194244 1182438 1196570 1221598
3912.88 1243560 1276950 1315848 1324292 1290608 1324252
3915.78 1504130 1844424 2088594 1814780 1437358 1366690
3918.67 1465036 1718288 1857076 1616998 1368408 1330884
3921.56 1372028 1411150 1452842 1518914 1557136 1637390
3924.45 1799760 1767280 1498716 1301348 1286834 1365080
3927.35 1432658 1478240 1553922 1589830 1532950 1499828
3930.24 1488118 1486950 1649752 1880634 1855022 1634226
3933.13 1507426 1501520 1564796 1627324 1587802 1516380
3936.03 1461746 1379356 1377528 1474820 1518418 1500084
3938.92 1490452 1490178 1503672 1501632 1465058 1501536
3941.81 1680482 1791968 1654314 1524398 1523164 1516390
3944.70 1514792 1520354 1510604 1513434 1579964 1633000
3947.60 1580298 1484936 1487012 1634234 1703806 1591746
3950.49 1499218 1468496 1458684 1463148 1436652 1412244
3953.38 1437474 1496604 1555204 1557998 1490778 1450586
3956.27 1486078 1538536 1563258 1578472 1581320 1592170
3959.17 1612778 1618102 1634776 1658850 1708032 1747772
3962.06 1713138 1645790 1613550 1659880 1731750 1761970
3964.95 1777732 1795206 1790712 1783680 1818198 1869554
3967.85 1902758 1955718 2004000 2014570 2008522 2000306
3970.74 2026384 2141318 2254386 2245034 2199064 2216774
3973.63 2278208 2371004 2422172
##END=
