##TITLE=Acetone
##JCAMP-DX=4.24
##DATA TYPE=INFRARED SPECTRUM
##CLASS=IUPAC A
##ORIGIN=NIST, Anayltical Chemistry Division, 301-975-3108
##OWNER=COPYRIGHT (C) 1998 by the U.S. Secretary of Commerce
##DATE=98/10/1
##$SPECTRA VERSION=1.00
##$UNCERTAINTY IN Y=2.3 % relative (B=1.3E-04,C=1.7E-09,D=2.7E-14)
##CAS NAME=2-Propanone
##CAS REGISTRY NO=67-64-1
##MOLFORM=C H3 C O C H3
##MP=-95.35 C
##BP=56.2 C
##$NIST SOURCE=QUANT-IR
##SPECTROMETER/DATA SYSTEM=IFS66V (Bruker)
##INSTRUMENT PARAMETERS=KBr Beam splitter; MCT Detector; Multipass cell
##STATE=gas
##SAMPLE DESCRIPTION=Acetone Primary Gas Standard
##PRESSURE=101.3 kPa
##TEMPERATURE=23 C
##SAMPLING PROCEDURE=1 L/min Flow
##RESOLUTION=1.9290
##DATA PROCESSING=NB Strong Apodization
##XUNITS=cm-1
##YUNITS=(micromol/mol)-1m-1 (base 10)
##XFACTOR=1.0
##YFACTOR=4.5474E-13
##DELTAX=0.9645
##FIRSTX=574.687
##LASTX=3974.595
##FIRSTY=3.53E-07
##MAXX=3973.63
##MINX=574.69
##MAXY=.0005168
##MINY=-1.32E-07
##NPOINTS=3527
##XYDATA=(X++(Y..Y))
574.69 777274 343818 334016 539786 479302 452606
579.51 403008 124292 264990 370794 362128 739922
585.29 670960 335654 117972-84616 5576 357858
591.08 563992 549478 398424 192816 240852 157842
596.86 89686 155182 188090 207696 172054 204436
602.65 221784 53896 58600 159476 124394-28156
608.44 3500 78614 213026 302586 299890 263208
614.22 209880 149562 81382-25220-44626-27736
620.01 51688 132946 102808 6284-39196-50366
625.79-53048-65736-89604-87732-43776 61494
631.58 5908-99702-235290-212736-42208-38898
637.36-152870-119098 24576-84076-210472-172538
643.15-61722-79122-130074-123868-115750-224378
648.93-234614-113462-32894-14966-172216-290560
654.72-253188-148060-130600-129042-112766-109118
660.50-151080-186780-276026-286932-211076-123974
666.29 178692 286850 68472-78418-138212-96908
672.08-53790-67110-152122-132602-120006-95438
677.86-125368-99722-73978-104250-98178-101584
683.65-85612-50804-61112-112166-101200-32026
689.43-7398-48402-37520-16150-35302-9542
695.22-65574-63256 18456-13896-3098 119450
701.00 85274-2474 20798 104414 73342 48040
706.79 60988 94412 166496 212886 211036 213024
712.57 186186 208656 270840 255148 242360 342438
718.36 437082 477016 503668 524960 603750 566028
724.14 656150 830594 833120 820024 911586 998332
729.93 1072114 1132092 1244394 1374382 1486538 1617950
735.71 1702082 1809112 1957820 2108798 2288508 2487466
741.50 2723188 2960090 3143458 3353696 3661488 3993906
747.29 4329896 4666394 5022218 5384286 5821358 6293212
753.07 6758438 7247228 7747722 8199548 8675704 9164534
758.86 9609882 10046400 10565400 11146650 11577270 11842820
764.64 12033600 12320520 12549240 12719990 12995130 13257330
770.43 13375220 13309740 13147860 12948220 12784580 12715510
776.21 13059000 13557530 13663740 13414940 13040820 12703790
782.00 12727720 13242440 13895450 14131640 13912170 13520470
787.78 13101780 12735520 12411840 12010610 11608870 11165350
793.57 10568010 9974628 9424952 8674288 7916304 7186064
799.35 6417102 5633356 4947644 4435114 3943748 3504372
805.14 3122816 2778104 2475332 2317580 2204766 1953680
810.93 1615424 1377982 1203206 1107966 1039986 936066
816.71 924066 939632 860690 767064 816240 861668
822.50 789640 765176 818918 904304 898312 893964
828.28 862516 849060 908104 974302 1104260 1123418
834.07 1101660 1167004 1246718 1337736 1412672 1434596
839.85 1511202 1562928 1616190 1672996 1724020 1823158
845.64 1948850 2088596 2223858 2392136 2583854 2747908
851.42 2914034 3188350 3471558 3745366 4075966 4567040
857.21 5060640 5526144 6078520 6743710 7523076 8349980
862.99 9296280 10381230 11563090 12801400 14125090 15603510
868.78 17179410 18926320 20813340 22776630 24652690 26524320
874.57 28316450 29679920 30196580 29989440 29559870 29863510
880.35 30775460 31815450 32431510 32852390 34438920 39691720
886.14 43430990 42526860 42445820 43276430 42360880 41191320
891.92 42647520 48167330 52476650 51387960 50018570 50234260
897.71 51081790 51416580 51323840 50524490 49751090 49259390
903.49 48944130 48537790 48176500 47532680 46661300 45641440
909.28 44550050 43290090 42021580 40657220 39241220 37648520
915.06 36017630 34455820 33053150 31624450 30307330 29076740
920.85 27975400 26918520 25836800 24717010 23721200 22713780
926.63 21811840 20907090 20061680 19155260 18287380 17412200
932.42 16614420 15874060 15198370 14454600 13741210 13086840
938.21 12493500 11862740 11349010 10941420 10574930 10181880
943.99 9867924 9579750 9369530 9119632 8943530 8816544
949.78 8723842 8577682 8479180 8384512 8323926 8231722
955.56 8215898 8231490 8268604 8205794 8168352 8072206
961.35 8012832 7921106 7815946 7631566 7501986 7512794
967.13 7793064 7909232 7601646 7366604 7291438 7182522
972.92 7128278 7050268 6977826 6898708 6908988 6897650
978.70 6865286 6808050 6764016 6648882 6557972 6427026
984.49 6318884 6231688 6236030 6186902 6099184 5892850
990.27 5710096 5503024 5303870 5100042 4992820 4877652
996.06 4786584 4698222 4740956 4773208 4712782 4475046
1001.85 4260484 4080460 3983946 3903504 3903306 3912120
1007.63 3910354 3855796 3908016 3981278 3988788 3874236
1013.42 3873126 3823872 3770866 3700034 3668834 3741796
1019.20 3785314 3578292 3511688 3489146 3537706 3514542
1024.99 3538042 3534396 3570748 3572164 3636244 3702898
1030.77 3778610 3770018 3856006 3922034 4031988 4155152
1036.56 4292184 4338422 4381840 4437832 4595822 4624984
1042.34 4722484 4786188 4871460 4929278 5014034 5069140
1048.13 5170512 5244880 5326550 5337252 5399554 5446918
1053.91 5551014 5590660 5722232 5847846 6037780 6185090
1059.70 6416096 6609322 6825508 7004408 7292136 7541886
1065.48 7923966 8242506 8612200 8941276 9364156 9728906
1071.27 10150340 10468000 10888510 11244230 11644340 12003870
1077.06 12475660 12812940 13040250 13223610 13592360 13790450
1082.84 14309450 14908240 15890670 17237480 19402770 22234770
1088.63 27106060 37080000 50255080 43857880 34922510 38237510
1094.41 30486770 22207670 20686940 20230380 20032270 20161520
1100.20 20535720 21036210 21555720 22039740 22527870 22927850
1105.98 23200820 23338390 23459940 23514360 23468530 23299700
1111.77 23023130 22628940 22162700 21547870 20844050 20108920
1117.55 19347400 18490880 17666430 16898180 16119180 15267600
1123.34 14453770 13678380 12976360 12268220 11639130 10987300
1129.12 10394790 9861002 9386572 8877786 8463376 8050104
1134.91 7755002 7450922 7168472 6863390 6625982 6400068
1140.70 6220304 6060570 5971878 5822818 5649500 5470560
1146.48 5370098 5258336 5232722 5225598 5244738 5238096
1152.27 5302462 5335520 5456882 5528552 5655478 5833196
1158.05 6122520 6336254 6642244 6951158 7370180 7788978
1163.84 8342944 8929780 9623842 10347180 11221140 12132330
1169.62 13192170 14330460 15674240 17099630 18772040 20540650
1175.41 22600910 24932950 27668880 30758020 34454930 38718910
1181.19 43847800 49848520 57089880 65666200 75942140 88005990
1186.98 102322300 118990900 138489600 160073600 183038800 208081200
1192.76 235168600 263576400 295278900 329525600 364968700 400108100
1198.55 434334000 466238900 494897200 520041300 541884200 559168600
1204.34 570019500 570487100 563892000 554876000 543994200 533932800
1210.12 529691700 533067100 550717600 593570600 664485700 752072900
1215.91 823575700 814721000 715738800 579733100 451972400 426884200
1221.69 462522300 504020500 542150400 575775000 603738100 624624000
1227.48 636068400 635750600 621882800 596758900 563441700 522736800
1233.26 475634300 425043700 373099900 321770300 272993000 228408000
1239.05 188792800 154452200 125227500 101141400 81610910 65988580
1244.83 53535940 43776620 36181700 30326890 25748140 22169190
1250.62 19364710 17170920 15359820 13891960 12668630 11644530
1256.40 10782530 10043460 9411424 8870740 8419330 8036532
1262.19 7737894 7460744 7214156 7009822 6863556 6715412
1267.98 6631554 6528670 6469412 6427818 6370976 6346108
1273.76 6399994 6443002 6502282 6563966 6682040 6765416
1279.55 6890200 6994938 7149216 7291134 7492496 7686288
1285.33 7991782 8284002 8729478 9444724 10008790 9731082
1291.12 9595498 9803824 10113740 10390690 10783630 11178430
1296.90 11659890 12153500 12740930 13316830 13985450 14646210
1302.69 15339910 15976850 16822180 17617200 18434740 19312780
1308.47 20347500 21373700 22634140 23848650 25143310 26658390
1314.26 28425520 30098860 31686700 33259550 35245410 37369100
1320.04 39845720 42539820 45614180 48837270 52455960 56251140
1325.83 60524040 65261390 70760450 76859020 83825100 91368830
1331.61 99934710 109537600 120562300 132840800 146650000 161769500
1337.40 178635100 197016800 217185700 238585500 261737200 286194400
1343.19 311786500 337860300 364454600 390646500 416868500 442260900
1348.97 466225000 488342200 506638000 518567500 526487700 531488000
1354.76 530301700 522500900 514094100 511252200 530700500 574858000
1360.54 595102800 585881900 599664900 679240400 782770400 712239700
1366.33 631971100 638486300 652317200 651373600 642583100 637206500
1372.11 630066600 621664500 611175200 599187300 583787500 565998700
1377.90 545273700 523386700 495880900 461662100 424772900 389273300
1383.68 355349600 323157300 292768100 264953100 239005700 216360400
1389.47 196756300 180235500 166127400 154860700 145776600 137864800
1395.25 131024900 126054600 122421800 119973000 117545200 115865400
1401.04 114920500 114645200 114748000 115030800 115122800 116248600
1406.83 118857800 123068900 126561900 126422400 126209300 129788200
1412.61 135024400 139766300 142782100 145037900 147535500 151023300
1418.40 154944700 157151500 159554100 162653100 164963500 166355600
1424.18 166810700 167090100 167013200 166309500 164976000 163675800
1429.97 163272800 166679100 173671500 181239700 184507000 182410300
1435.75 177667000 174059000 174744100 178089700 179828800 177480900
1441.54 173825000 170682400 168774900 168592800 169127600 170565100
1447.32 171798400 167726400 160448700 152598600 146129100 144482600
1453.11 161698700 173897600 152572100 135599000 127749500 123552700
1458.89 120178600 117696000 114994300 111722000 108207900 105535900
1464.68 101812300 98153860 95023620 92307020 89953460 88383520
1470.47 88154070 88801300 87681730 83271470 78653390 76171060
1476.25 73554380 71014400 67744560 63892980 60188730 57395600
1482.04 55316660 54130420 52208650 49836850 48207870 46990270
1487.82 45758910 45173140 44048460 42665180 41490520 40857920
1493.61 40307400 40902440 40928900 39462780 39091210 38661810
1499.39 37784140 37514730 37182340 36897270 36956510 38368730
1505.18 39396460 39863930 40158570 39640510 37392620 36131130
1510.96 36074270 35952740 35612460 35809550 35827730 36353410
1516.75 36167840 35592420 36132240 38154770 38871380 37580020
1522.53 36594800 36804960 37688300 37431470 36908120 36412400
1528.32 35819570 35469200 35495780 35693800 36277970 36223410
1534.11 35307190 35095860 35117920 36096430 38047890 37969930
1539.89 36524710 36194760 35409310 34295710 34418860 34032220
1545.68 33139610 32943820 33295340 33541750 32736990 31826160
1551.46 31620240 32197300 32799610 31511000 30867800 32190760
1557.25 33848290 33654020 33079500 30729460 29039320 28766720
1563.03 28496880 28160200 27372250 26764920 26448990 26705650
1568.82 26803760 25554890 24491960 23824020 23251190 23055090
1574.60 24532240 24583710 21936780 20814960 20269970 19926070
1580.39 19483020 19140850 18671290 18339170 17935020 17661210
1586.17 17306390 17000880 16607840 16268170 15832080 15409760
1591.96 14965990 14654540 14235070 13821350 13375730 12968790
1597.74 12574490 12248660 11890060 11564580 11205880 10890140
1603.53 10543840 10263370 10018310 9808202 9567946 9398728
1609.32 9102730 8792028 8579944 8399470 8268038 8424392
1615.10 10065380 10580250 8450544 7703156 7580380 7624626
1620.89 7554626 8097212 8320180 7622706 7165004 7217470
1626.67 7471004 7300942 7011814 6993160 6978970 7046844
1632.46 7204624 8323886 10020030 9244162 8043084 7846152
1638.24 7692706 7897540 7990196 8243344 8406816 8728552
1644.03 9801222 11336190 10949390 10712420 10460570 10381820
1649.81 10885920 13497010 16704080 15943900 13584850 12486110
1655.60 12275860 12536080 12708130 12981920 13175070 13640280
1661.38 14424510 14592860 14092990 14422480 15128130 16640910
1667.17 18416120 20132560 20028400 19988710 20361390 20917540
1672.96 22232090 24640690 25656750 25798990 26797640 28121230
1678.74 29576340 30917670 32107030 34128800 36932540 40302040
1684.53 40520900 40000140 41984100 44518880 47406030 50608580
1690.31 54279860 58294730 62749630 67994570 76087830 84773670
1696.10 92149730 103298100 117640800 132804500 144815600 157197100
1701.88 173623200 193513000 215717500 240335500 267593300 296864600
1707.67 328863300 363155900 399001800 435836200 473441200 511081500
1713.45 548155300 583766500 618274500 652223700 681221700 707173700
1719.24 732060900 755801100 778231900 799121900 817925000 834701600
1725.02 850106100 864120400 875416500 876899100 868021800 859794600
1730.81 865487700 896715500 954242800 1022667000 1078364000 1112969000
1736.60 1129347000 1136613000 1134988000 1118637000 1095648000 1076780000
1742.38 1059257000 1041687000 1022740000 999062900 972354600 946664700
1748.17 923209400 903737100 888851300 869135200 841292800 807636200
1753.95 769551000 733203800 700682200 671724700 646910600 624329600
1759.74 603027600 579543400 547545100 513133000 480426700 450064500
1765.52 421883100 395551300 371079700 350359700 332763100 314342600
1771.31 299326000 288685700 269711100 243718500 221170900 207419900
1777.09 199482700 190633400 181261000 173476800 167264900 162380400
1782.88 157996000 153941200 150041100 146165800 140257100 131713100
1788.66 123091500 117104000 113276900 109898700 104738400 98980460
1794.45 93594670 88043340 82646290 77844280 73844340 70175090
1800.24 66655880 63171260 59577330 56188560 53193460 50541550
1806.02 48008470 45436080 42843000 40502940 38184960 35773420
1811.81 33546000 31447280 29505180 27748240 26192120 24772850
1817.59 23387130 22124100 20980570 19923670 18978090 18134450
1823.38 17591090 17114460 16095750 15254990 14749760 14538390
1829.16 14225610 13280480 12487570 12016560 11655640 11426070
1834.95 11172470 10819220 10442460 10089520 9934812 9762574
1840.73 9446956 9269670 9657156 9366844 8032404 7405698
1846.52 7131474 6816652 6399686 6124702 5844540 5644746
1852.30 5413676 5265860 5086212 4942248 4772918 4625162
1858.09 4416608 4276004 4139420 4024228 3884350 3807314
1863.88 3748286 3741434 3723008 3795272 3960406 3914764
1869.66 3465416 3281946 3194410 3170756 3090402 3042662
1875.45 2957070 2904150 2826038 2782926 2696862 2656264
1881.23 2598438 2563582 2499312 2507162 2523508 2633260
1887.02 2555234 2514798 2393650 2124166 2006958 1978834
1892.80 1974072 2022972 1989136 1908866 1857768 1822720
1898.59 1771144 1742714 1675368 1615778 1559760 1509262
1904.37 1432494 1379764 1332074 1302152 1254690 1243600
1910.16 1122722 1061976 990466 952080 892126 889690
1915.94 1036854 1341636 1098936 820180 808046 894034
1921.73 1002044 961792 828958 806830 805524 801774
1927.51 780974 790224 790308 794006 790006 819726
1933.30 824494 830090 830014 860832 865544 865520
1939.09 870708 933462 1097172 1147574 985500 995270
1944.87 1030808 1059978 1054008 1091980 1122764 1165800
1950.66 1202062 1269194 1301838 1351526 1373760 1418344
1956.44 1476840 1544646 1575178 1642392 1696958 1751100
1962.23 1785712 1839462 1882280 2000894 2116700 2165864
1968.01 2159254 2177134 2198998 2247350 2284000 2366898
1973.80 2389594 2401224 2413292 2443040 2470780 2521628
1979.58 2505024 2484932 2453504 2468954 2444162 2474532
1985.37 2487492 2492998 2435392 2319502 2229996 2339206
1991.15 2434018 2346918 2275978 2249990 2090152 1987036
1996.94 1936536 1918122 1848842 1791432 1724922 1678348
2002.73 1605402 1528136 1429938 1330134 1210814 1117840
2008.51 991284 902992 812790 727642 642340 590022
2014.30 519534 515340 500386 452728 407394 392696
2020.08 372692 373226 347758 329818 333348 353752
2025.87 338684 324480 322176 336422 327672 325652
2031.65 319072 325154 330410 367170 355420 352334
2037.44 355384 379954 373530 395418 399828 402824
2043.22 415570 461960 443658 443876 456810 480608
2049.01 480786 496524 525668 561542 563846 599512
2054.79 624132 645632 648432 703148 728226 759622
2060.58 785970 828454 872838 948826 981498 1013282
2066.37 1041622 1103810 1171318 1254510 1323162 1400632
2072.15 1447724 1530158 1625150 1753236 1850330 1977818
2077.94 2122002 2263154 2394832 2576732 2760012 2971412
2083.72 3166990 3385240 3593500 3828490 4064080 4311462
2089.51 4527322 4762708 4992104 5235268 5413172 5598610
2095.29 5781230 5952998 6212756 6537132 6754310 6824000
2101.08 6792138 6900116 7197406 7631816 8066954 8423820
2106.86 8613238 8720166 8833232 9085266 9455474 9845854
2112.65 10168470 10468030 10710610 10984860 11260450 11514740
2118.43 11710710 11925940 12117310 12282530 12424290 12541970
2124.22 12584660 12580730 12548140 12540940 12534340 12521150
2130.01 12498570 12502520 12471910 12506240 12576180 12543860
2135.79 12257770 11974920 11771790 11605840 11513660 11558060
2141.58 11702690 12070520 12375570 12033200 11178930 10609920
2147.36 10344390 10131070 9858924 9567642 9287148 8980124
2153.15 8592910 8235642 7836524 7386422 6916194 6474366
2158.93 5999282 5518196 5031550 4587250 4189554 3816164
2164.72 3478650 3193958 2927650 2716334 2523750 2338154
2170.50 2146248 2021084 1935852 1881630 1804782 1735568
2176.29 1658682 1627092 1581022 1525368 1456066 1412878
2182.07 1332350 1356174 1410278 1388268 1307536 1226338
2187.86 1190108 1261976 1306210 1317388 1288902 1259434
2193.64 1254980 1257640 1247472 1279570 1301804 1319496
2199.43 1311566 1332692 1358442 1380776 1391396 1409776
2205.22 1427906 1493128 1568208 1653798 1758796 1849492
2211.00 1898758 1938156 1974940 1984808 1967916 2007290
2216.79 2064284 2151982 2217358 2285846 2372926 2505048
2222.57 2655296 2823664 2985650 3146534 3226270 3325654
2228.36 3486564 3644658 3741884 3826960 3895624 3951244
2234.14 3996200 4077492 4169484 4265396 4353584 4450874
2239.93 4560378 4677996 4835204 5098036 5374192 5394352
2245.71 5197754 4918960 4668244 4610072 4643122 4731552
2251.50 4833656 4900590 4947410 5012776 5009128 4982480
2257.28 4943014 4901400 4843934 4789758 4678594 4580676
2263.07 4427436 4246860 4100198 4015484 3896500 3771526
2268.86 3647608 3552196 3461476 3383848 3268198 3139886
2274.64 3018692 2922484 2819136 2714482 2591806 2511368
2280.43 2448372 2404592 2312302 2236550 2149592 2101608
2286.21 2072788 2033692 1968904 1918366 1891198 1876744
2292.00 1837138 1791196 1738418 1701426 1660290 1637714
2297.78 1612300 1604854 1595772 1554964 1509734 1487618
2303.57 1486062 1498564 1515918 1522676 1523774 1528954
2309.35 1532244 1583928 1596388 1595958 1574186 1598118
2315.14 1549704 1598420 1630546 1646118 1555562 1580104
2320.92 1575084 1620658 1636048 1699562 1693730 1744212
2326.71 1783916 1794944 1733554 1712520 1691600 1709604
2332.50 1721458 1739502 1694588 1674542 1641972 1639264
2338.28 1627782 1615384 1570910 1518262 1461536 1424468
2344.07 1408422 1407006 1311946 1215152 1133494 1127336
2349.85 1157370 1196592 1205784 1221972 1248340 1285338
2355.64 1282022 1309026 1315660 1289608 1269262 1258426
2361.42 1219786 1207012 1179492 1130082 1052458 1009326
2367.21 975276 924576 850258 795076 726044 689196
2372.99 639896 592110 562866 530694 444492 399798
2378.78 387608 383532 343156 346816 352340 356602
2384.56 332022 318754 312804 316126 333362 356954
2390.35 372414 381432 391696 449198 480512 514624
2396.14 541270 588276 625636 659584 691808 774762
2401.92 856842 939548 994418 1056316 1091174 1157720
2407.71 1215782 1293122 1353872 1433880 1513184 1574934
2413.49 1608726 1661344 1739126 1808314 1860646 1914448
2419.28 1956092 2008834 2028286 2084434 2109600 2120368
2425.06 2125312 2123614 2119506 2151278 2192170 2223070
2430.85 2200452 2163328 2125970 2114172 2099808 2100896
2436.63 2075892 2062624 2076616 2147328 2229098 2391968
2442.42 2431384 2209884 2009444 1934282 1922072 2055120
2448.20 2267918 2156212 1710784 1364814 1159966 1048586
2453.99 989626 944832 904100 842806 758078 737156
2459.77 725794 714618 696170 685848 663142 663552
2465.56 631446 600598 580500 589364 572828 570070
2471.35 577230 610998 604394 610690 613960 619140
2477.13 640128 685240 726296 743690 758734 813234
2482.92 833570 863730 880848 907000 952760 962176
2488.70 953926 981366 989582 1014906 1039512 1072540
2494.49 1089502 1076504 1083862 1144978 1178326 1186850
2500.27 1190692 1228926 1275152 1307574 1324364 1315592
2506.06 1305062 1341942 1361122 1386088 1368950 1350076
2511.84 1331564 1320160 1302520 1311578 1339842 1336656
2517.63 1326810 1323668 1315740 1307112 1308208 1372288
2523.41 1457850 1491250 1467888 1460954 1491908 1538732
2529.20 1582552 1642836 1669328 1718476 1760026 1795878
2534.99 1852230 1946552 2011204 2089470 2147284 2203434
2540.77 2278846 2383098 2519830 2612828 2699342 2840054
2546.56 3015146 3197708 3342934 3489232 3682390 3883542
2552.34 4081808 4276068 4442370 4637254 4819574 5002412
2558.13 5181934 5340086 5443920 5548134 5614692 5667788
2563.91 5680284 5684606 5706220 5770864 5869682 6006202
2569.70 6092270 6132288 6324860 6757542 7273936 7062656
2575.48 6076834 5590532 5550350 5531428 5535328 5677588
2581.27 5847784 5962780 5959088 5911978 5819972 5668716
2587.05 5474684 5266186 4988286 4689526 4369316 4045628
2592.84 3688262 3358332 3033352 2730890 2435006 2203988
2598.63 2000486 1805604 1633328 1502826 1398864 1317754
2604.41 1247978 1180828 1099196 1045182 1026222 1026934
2610.20 1013658 1010760 1006692 1015832 976700 954396
2615.98 938464 954930 951574 976260 1011456 1013384
2621.77 1008412 1016942 1016734 1042504 1082824 1142920
2627.55 1157656 1162094 1171212 1145444 1146700 1190074
2633.34 1200120 1233286 1241322 1227940 1245212 1286068
2639.12 1291274 1282048 1283418 1298054 1314776 1309764
2644.91 1282560 1296732 1273110 1244638 1226558 1233686
2650.69 1214322 1195938 1203500 1199620 1190270 1198840
2656.48 1195008 1159060 1136092 1110052 1120444 1109678
2662.27 1046722 1024930 980112 950456 898870 872486
2668.05 861960 844574 797862 753398 727238 706700
2673.84 685606 668358 646956 650180 674226 674774
2679.62 682626 702114 697426 721512 723064 721714
2685.41 715646 755774 792160 791862 807390 814902
2691.19 796390 792716 804074 809820 813546 823252
2696.98 863170 915488 865404 839578 869326 904710
2702.76 963894 1038840 1128034 1173158 1152136 1140696
2708.55 1152510 1213938 1248774 1240750 1246170 1269102
2714.33 1275254 1235362 1184520 1187224 1181480 1126820
2720.12 1062274 1037940 1040114 1025352 999916 990270
2725.91 986666 990790 968118 914604 861116 903460
2731.69 964408 974534 967476 998348 1023580 1015334
2737.48 964988 964242 1016728 1070424 1061732 1054226
2743.26 1087860 1111840 1113396 1132500 1168712 1222892
2749.05 1263288 1301146 1337322 1382998 1446156 1520174
2754.83 1544716 1596384 1675896 1761524 1857990 1975478
2760.62 2070866 2186580 2277278 2390190 2500698 2585390
2766.40 2723448 2873610 2995144 3150616 3350772 3538744
2772.19 3713490 3898530 4033862 4162886 4365150 4609764
2777.97 4735208 4746064 4791728 4920170 5017558 5084716
2783.76 5184134 5325642 5455120 5558316 5691664 5824674
2789.54 5882818 5945734 6003056 6111660 6232986 6389616
2795.33 6551146 6708212 6763008 6667916 6584798 6599598
2801.12 6663628 6692166 6701696 6694900 6753490 6787574
2806.90 6722200 6699052 6709220 6700142 6695920 6735950
2812.69 6782280 6864806 6898034 6921204 6965004 7028020
2818.47 7109274 7298604 7510134 7658178 7818796 8084204
2824.26 8359420 8653570 8957734 9286596 9635256 10027600
2830.04 10493780 11016540 11533290 12033760 12490560 12981110
2835.83 13515990 13993000 14422970 14868970 15317720 15720460
2841.61 16046070 16389210 16698550 16981940 17282290 17550830
2847.40 17801170 18077190 18371350 18655650 18927420 19187410
2853.18 19403520 19552240 19767280 19987660 20110690 20194050
2858.97 20273220 20424410 20687370 21047390 21400130 21508540
2864.76 21367050 21183410 21073420 21014610 20848980 20592400
2870.54 20375970 20191060 19960950 19752130 19570900 19375370
2876.33 19248680 19125920 18996310 18878800 18786600 18719090
2882.11 18684200 18700220 18760720 18865500 18994970 19182190
2887.90 19383870 19656490 20087780 20707980 21308830 21689090
2893.68 22047140 22550450 23298470 24183360 25147960 26130410
2899.47 27199180 28403410 29712150 31137470 32755170 34549880
2905.25 36463060 38476070 40559260 42783540 45412280 48188180
2911.04 50854640 53563050 56338230 59090940 61925220 64783870
2916.82 67480990 69853270 71880470 73565430 75110800 76595330
2922.61 78025100 79328980 80340460 81077730 81867680 82996880
2928.40 84025800 83867580 83265690 82839990 82783140 83766700
2934.18 86196590 89563650 93045100 95964480 98366100 100570600
2939.97 103054700 105231700 106222200 106854200 107627100 108297600
2945.75 108729400 108640500 108084400 107076500 105766700 104186100
2951.54 102546400 100875000 98996160 97024950 95370360 93877970
2957.32 91967510 89519580 87260660 85914310 85643840 86338820
2963.11 88807500 93879420 103000600 117343500 142782700 198320000
2968.89 256739200 240671300 187245800 146337100 119092400 103112400
2974.68 93770250 88702050 85471860 83652020 83221860 83947050
2980.46 85069160 87017080 89422310 91924090 94107940 96318250
2986.25 98228130 99976900 101580800 103232000 104761200 106388300
2992.04 108090100 110021300 112108700 114243400 116213000 118327500
2997.82 120394100 122386400 124108200 125569900 126656000 127497000
3003.61 127904600 127833300 127468400 126985900 126046600 125037500
3009.39 123957300 123540300 124140300 126158200 129732900 134068400
3015.18 138294500 138947800 129466000 121443500 120549300 121898000
3020.96 123434800 124436100 125290200 125935500 126313200 126422200
3026.75 125988300 124712100 122533900 119477000 115648200 111074200
3032.53 105972400 100724100 95559570 90516150 85569160 80721420
3038.32 76098340 71730840 67598880 63998690 61272290 59183130
3044.10 57411050 55805870 54298150 52917270 51763880 50761190
3049.89 49915320 49273020 48815870 48560360 48353070 48051930
3055.67 47666930 47239840 46827030 46437870 46050590 45731020
3061.46 45528490 45386260 45323860 45206850 44926950 44680780
3067.25 44527480 44433760 44239900 43984630 43715740 43450950
3073.03 43061360 42548410 41985340 41466740 40977510 40610120
3078.82 40171520 39704100 39216750 38748860 38156600 37462500
3084.60 36792400 36202030 35653040 35127500 34527450 33858270
3090.39 33022440 31982340 30902300 29886720 28941110 27992700
3096.17 27125650 26414400 25801800 25170300 24497700 23759010
3101.96 22995400 22224270 21393370 20616730 19833240 19059580
3107.74 18353140 17643060 16869190 16162230 15528760 14838430
3113.53 14102420 13472720 12863310 12320090 11771900 11188830
3119.31 10724190 10358420 9926536 9495282 9077448 8726712
3125.10 8385398 8084448 7789480 7464450 7201470 7010040
3130.89 6793166 6543532 6299916 6148772 5969782 5863982
3136.67 5768416 5576816 5476148 5449222 5242758 5070200
3142.46 4969162 4890160 4801420 4726344 4701456 4683226
3148.24 4669188 4663800 4555938 4476032 4499886 4386636
3154.03 4240986 4193478 4198354 4192010 4102742 4053216
3159.81 3984140 3919680 3942124 3929692 3882226 3864406
3165.60 3790876 3755746 3749596 3732192 3690064 3639472
3171.38 3570078 3488574 3431376 3451176 3462510 3451896
3177.17 3404948 3327270 3207384 3143444 3128618 3111386
3182.95 3074310 3005054 2923610 2852122 2782610 2763210
3188.74 2699914 2638152 2613584 2529046 2493078 2476658
3194.53 2429320 2378778 2323328 2313346 2256660 2194218
3200.31 2142706 2109116 2050772 1994082 1965504 1944232
3206.10 1920650 1897318 1840362 1838878 1823486 1783408
3211.88 1750064 1703272 1682582 1673324 1642974 1590896
3217.67 1573542 1595348 1578450 1543100 1530998 1465122
3223.45 1493892 1522612 1454746 1376410 1375828 1409392
3229.24 1435562 1428006 1409976 1320454 1278808 1312538
3235.02 1324332 1334050 1344468 1341960 1276350 1270764
3240.81 1241918 1213270 1237960 1269624 1205398 1166138
3246.59 1158602 1152300 1122294 1172018 1177906 1160846
3252.38 1216114 1217372 1129478 1117066 1130710 1115050
3258.17 1082890 1055606 1074710 1081956 1040098 1018352
3263.95 1033208 1001052 993120 964502 953962 936642
3269.74 906508 958746 1036124 990750 958992 970888
3275.52 1005290 1005324 983174 940794 989348 1031146
3281.31 1014810 1005594 992254 962746 999508 1036640
3287.09 1096886 1086648 1009460 1047956 1113630 1057802
3292.88 989838 1008206 990072 986966 1000802 1033868
3298.66 1077634 1108642 1038386 956014 926770 948280
3304.45 989052 994400 1012564 1052662 1104410 1097036
3310.23 1042756 981012 904046 931018 966794 974826
3316.02 984796 997260 953736 919510 874808 868888
3321.80 868804 852550 851314 869620 864042 885568
3327.59 817296 732038 691366 722752 740156 687454
3333.38 685184 688092 662682 615154 588088 641730
3339.16 670390 630372 581106 583756 605158 565940
3344.95 526960 587904 648484 653712 579968 510364
3350.73 553642 597928 639340 635208 593248 608644
3356.52 616254 659630 665102 604578 602048 658398
3362.30 693220 758164 749056 697604 708728 733774
3368.09 710354 811280 886650 922858 957720 1010864
3373.87 1052192 1085008 1088140 1151798 1249494 1225472
3379.66 1217870 1296790 1347718 1408002 1410196 1341366
3385.44 1387868 1421032 1392028 1365522 1389654 1442686
3391.23 1529302 1525536 1429868 1376016 1406040 1487376
3397.02 1537376 1498054 1426190 1482276 1561538 1581940
3402.80 1572678 1583694 1591572 1642214 1711984 1743936
3408.59 1824194 1963700 2021738 2116560 2294702 2476424
3414.37 2659684 2854904 3078004 3332076 3631088 4022064
3420.16 4385522 4785938 5254582 5763740 6260840 6828396
3425.94 7488070 8155730 8870824 9621676 10382420 11121320
3431.73 11887710 12769610 13574340 14302650 14992480 15699320
3437.51 16386010 17028180 17598480 18149510 18767780 19352310
3443.30 19817900 20304440 20838670 21379180 21650590 21664550
3449.08 21558510 21889810 22770430 24017220 25180510 25778030
3454.87 25778870 25591890 25332530 25093070 24969650 24916210
3460.66 24861300 24852350 24752760 24537640 24231240 23875610
3466.44 23409680 22851120 22285760 21671990 21046830 20389130
3472.23 19626380 18885910 18149680 17319840 16531010 15724060
3478.01 14921020 14208500 13519350 12804320 12112680 11433720
3483.80 10721760 10047570 9432662 8833594 8364692 8067126
3489.58 7849248 7551876 7195408 6919080 6773550 6578350
3495.37 6257266 5896952 5554148 5329824 5152764 4943696
3501.15 4754222 4575982 4295542 3969874 3707786 3494286
3506.94 3275650 3112486 2873488 2668792 2546570 2370116
3512.72 2189324 2017944 1871376 1701974 1609340 1547254
3518.51 1484882 1344468 1259330 1209522 1203552 1134042
3524.30 1063680 1022888 981016 916046 842336 766344
3530.08 700848 587954 521926 455330 442202 492826
3535.87 479882 393962 341844 278462 196082 176098
3541.65 300800 324868 325976 276860 315718 337136
3547.44 183574 119412 162686 258182 370022 307296
3553.22 165174 111330 154850 198310 211208 184858
3559.01 198482 175670 166632 179580 227118 297504
3564.79 560328 682288 684614 491270 119096 87710
3570.58 20072-64662-114826-89834-102912-59956
3576.36-95022-147956-48772-4046-121360-135998
3582.15-152156-125978-15400 387194 504454 533184
3587.94 630466 70672-127040-62732 141974 88864
3593.72 107592 210966 70704-4206 68688 83378
3599.51 151654 131148 40346-10734-23574 23894
3605.29 228176 322576 496320 1049850 580966 94078
3611.08 556148 672588 408264 361652 160396 266070
3616.86 533418 787180 1077200 551612 218534 114772
3622.65 126368 52556 152310 256302 893048 1948388
3628.43 2276060 1240422 267998 137692 339726 384756
3634.22 159862 109334 165398 238940 205718 135218
3640.00 136044 175688 221628 160452 243590 484336
3645.79 1093172 1274036 1857770 2177848 1528434 1115070
3651.57 403692 231278 279450 984162 1479340 701200
3657.36 200136 219232 204518 244244 223650 229320
3663.15 232990 237978 296958 373498 773650 1207424
3668.93 1868392 2594342 1173126 442318 870708 2203040
3674.72 3104228 2034404 669626 668306 758444 622320
3680.50 376730 375304 366424 460182 377228 438720
3686.29 1240854 3003876 2171024 1022184 1367516 987816
3692.07 551416 502554 517634 529696 505576 490662
3697.86 495366 512434 785356 1220538 884272 537410
3703.64 494910 546826 537968 559038 944392 1389198
3709.43 1094436 1780590 2472408 1317412 686498 655502
3715.21 615568 638396 743066 852444 691088 734250
3721.00 1037520 977532 807412 939496 1089458 1209574
3726.79 853548 731584 727964 1024568 1928286 2110500
3732.57 1343962 1820326 2063512 2432936 1878484 1239014
3738.36 986224 985892 1066870 1027152 1968312 4856504
3744.14 4601990 1730404 1076692 1546122 3412448 3298376
3749.93 2106164 3740956 3280688 1361050 1000432 1194792
3755.71 1341230 1079808 1193042 1621494 1378066 988802
3761.50 974132 960576 1091292 1479956 1391740 1031800
3767.28 1099870 1642316 1957348 1345666 1104442 1026944
3773.07 1050596 996580 1017272 1086846 1274170 1626224
3778.85 1720792 1338090 1288050 1254500 1353754 1494696
3784.64 1438626 1305034 1323720 1299700 1366052 1381808
3790.43 1406688 1352174 1371868 1400210 1681434 2059666
3796.21 1977794 1652186 1708376 2303338 4144486 3888528
3802.00 2326338 1915170 1808294 2401032 3497356 2834214
3807.78 1747232 1695750 1557062 1630440 1646152 1705422
3813.57 1951478 3691768 4044472 2222048 1745688 1972932
3819.35 2825616 3453542 2815122 1852666 1667136 1614266
3825.14 1811570 1898784 1660138 1507858 1534146 1952862
3830.92 2224266 1688670 1716878 2196462 1927620 2290618
3836.71 4075082 3104414 1745630 1884412 1689948 1414816
3842.49 1662902 1488176 1082426 1002332 999230 1062532
3848.28 1119356 1167898 2170872 3434918 3769716 5556972
3854.07 3626634 1293932 1177010 1074158 874182 866078
3859.85 1140096 1384574 1121814 1187646 1912000 1759382
3865.64 942282 830644 1339908 2488632 2341474 1120662
3871.42 818310 1080224 1361756 983784 712390 673990
3877.21 693370 979386 1474786 1264132 846512 869732
3882.99 927646 1676562 2262656 1272138 734824 722914
3888.78 880486 1570078 1854930 1125456 940898 877236
3894.56 843578 842034 992944 1403926 1868820 1440772
3900.35 1752482 1868286 1719466 2144778 1704704 1355822
3906.13 1180316 1097854 1097778 1104562 1148662 1187102
3911.92 1224590 1275146 1310926 1407508 1770450 1751674
3917.70 1481684 1648920 1597634 1382958 1415806 1510346
3923.49 1662066 1651936 1397676 1363746 1487802 1546492
3929.28 1513888 1563080 1760408 1667024 1542870 1580268
3935.06 1518072 1420252 1455232 1498900 1495500 1491856
3940.85 1563368 1679844 1580014 1518532 1515328 1541104
3946.63 1581610 1537584 1596058 1591100 1482224 1453708
3952.42 1434152 1496690 1523300 1488912 1525514 1574694
3958.20 1594092 1623760 1668052 1713458 1663806 1675118
3963.99 1751190 1786468 1801984 1865946 1951204 2004504
3969.77 2022354 2137884 2223472 2244634 2351594
##END=
