##TITLE=Acetone
##JCAMP-DX=4.24
##DATA TYPE=INFRARED SPECTRUM
##CLASS=IUPAC A
##ORIGIN=NIST, Anayltical Chemistry Division, 301-975-3108
##OWNER=COPYRIGHT (C) 1998 by the U.S. Secretary of Commerce
##DATE=98/10/1
##$SPECTRA VERSION=1.00
##$UNCERTAINTY IN Y=2.3 % relative (B=1.3E-04,C=1.7E-09,D=2.7E-14)
##CAS NAME=2-Propanone
##CAS REGISTRY NO=67-64-1
##MOLFORM=C H3 C O C H3
##MP=-95.35 C
##BP=56.2 C
##$NIST SOURCE=QUANT-IR
##SPECTROMETER/DATA SYSTEM=IFS66V (Bruker)
##INSTRUMENT PARAMETERS=KBr Beam splitter; MCT Detector; Multipass cell
##STATE=gas
##SAMPLE DESCRIPTION=Acetone Primary Gas Standard
##PRESSURE=101.3 kPa
##TEMPERATURE=23 C
##SAMPLING PROCEDURE=1 L/min Flow
##RESOLUTION=0.9640
##DATA PROCESSING=NB Strong Apodization
##XUNITS=cm-1
##YUNITS=(micromol/mol)-1m-1 (base 10)
##XFACTOR=1.0
##YFACTOR=4.5474E-13
##DELTAX=0.4820
##FIRSTX=575.169
##LASTX=3975.077
##FIRSTY=2.13E-07
##MAXX=3974.59
##MINX=575.17
##MAXY=.0005183
##MINY=-1.89E-07
##NPOINTS=7053
##XYDATA=(X++(Y..Y))
575.17 468624 280232 26652 359514 593086 450092
577.58 656016 666206 96804 466896 593846 588866
580.47 305264-213988-72784 509468 460934 402500
583.37 301470 101148 414276 1048996 1019666 608060
586.26 511638 199928 165120 362324-98836-265580
589.15-116870 27852 31634 384786 710858 579156
592.04 484016 625110 542532 475308 240804-13930
594.94 189610 365154 297546 155246-43938 113168
597.83 89668 208362 202442 105532 246446 266562
600.72 147824 191340 149020 82638 378750 331734
603.61 95372 26996-114580 80222 179494 105526
606.51 260506 189408 31550-129722-116702 68776
609.40 73480 54090 36284 252036 389046 286222
612.29 225384 403452 296546 195570 249344 283860
615.18 129248 111098 168074 129758-13640-47710
618.08-81822-37516-20336-35820-57350 53084
620.97 127858 211004 77902 157314 80824-52912
623.86-16658-95876 10768-17052-158354-22516
626.76 28292-114554-113944-66852-81854-92390
629.65-94366-125538 42658 175410 49350 726
632.54-47866-105406-112622-252122-408916-244084
635.43-66702-4778 5838 43666-105888-215268
638.33-227708-162856-38736 171360 54612-108242
641.22-194606-287812-233964-134492-177478-15428
644.11 39008-75472-186364-136698-104334-142020
647.00-125366-81168-75796-228340-417526-281396
649.90-86700-42420-202360-14896 122770-11056
652.79-99600-101972-328040-347416-296926-271410
655.68-208214-100336-74760-185360-144472-73998
658.58-174512-107316-98958-57106-132392-211096
661.47-144918-135994-213820-308652-374198-285688
664.36-221426-213252-195036-143048-152174 171272
667.25 602920 367598 55584 68918 1588-79006
670.15-211636-146088-66212-158956-82052 14456
673.04-80228 10806-104064-276482-153998-34020
675.93-177764-161842-54234-78124-119088-110024
678.82-188832-88430-58226-34498-80312-146222
681.72-148976-38356-61124-173420-111796-33422
684.61-100116-55880-8086-41936-90040-148772
687.50-131138-104824-93806-9554 29094-11446
690.40-16038-27084-134214-53474 57700 5110
693.29-69250-70256-23554 64298-23490-73608
696.18-160100-54418-41580 52364 120934-40898
699.07-150144-23298 105070 156308 163532 121994
701.97-5168-24916-58364 13388 83412 132820
704.86 158668 60676-12982 63314 71620 51882
707.75 46244 110514 98912 163670 250084 216338
710.64 186626 240124 183742 239372 212610 180544
713.54 147174 178758 271358 298144 300252 253566
716.43 195536 242410 234458 324102 460224 490136
719.32 381314 477146 558428 503802 470748 480380
722.22 570494 682006 655512 480486 492904 646652
725.11 776432 912984 896040 808036 785102 797314
728.00 820636 949220 973900 982354 1021914 1107148
730.89 1110912 1084352 1172130 1248120 1306230 1407534
733.79 1433450 1429578 1562474 1677154 1657618 1685120
736.68 1728860 1804350 1883958 1955662 2040474 2094224
739.57 2185566 2279678 2402740 2483230 2546212 2756604
742.46 2860948 2947776 3090806 3157672 3172708 3344616
745.36 3486084 3656590 3842762 3980194 4158898 4343904
748.25 4499970 4631596 4851904 5054540 5164530 5375904
751.14 5568130 5802296 6084426 6292236 6521094 6753820
754.04 6992862 7228172 7510870 7779368 7976938 8205684
756.93 8388446 8667024 8966506 9164022 9380894 9634614
759.82 9826632 10016000 10260450 10532620 10868750 11208430
762.71 11420120 11617440 11734240 11876270 11955260 11981040
765.61 12083980 12380740 12533300 12553430 12584930 12683150
768.50 12833600 13020110 13130410 13283310 13397890 13444600
771.39 13334460 13327010 13292570 13152140 13002680 12939710
774.28 12903000 12766160 12674630 12635130 12675740 12996890
777.18 13404090 13678690 13795250 13703380 13600470 13433720
780.07 13256040 13052830 12803520 12636790 12560170 12596570
782.96 12824860 13213150 13658320 13977300 14175560 14321010
785.86 14081940 13870760 13779380 13550010 13276270 13091110
788.75 12881040 12744140 12560430 12435290 12267460 12011690
791.64 11744410 11618210 11460450 11188540 10935480 10567660
794.53 10191630 9933156 9767002 9481294 9130988 8685308
797.43 8194544 7899054 7619672 7211516 6754840 6427076
800.32 6062290 5619612 5210692 4858594 4676928 4507226
803.21 4152452 3887540 3756548 3487106 3274472 3106738
806.10 2977998 2785588 2560172 2461814 2329488 2312658
809.00 2269198 2254658 2147904 1982770 1766892 1570718
811.89 1446666 1394678 1284084 1182924 1097514 1109702
814.78 1102156 1062418 983226 907162 867412 922472
817.68 964428 966604 936744 860498 805702 713496
820.57 709006 832138 908688 906966 829402 764420
823.46 726266 789566 760702 766904 886936 986866
826.35 893680 883588 876874 918964 884978 896970
829.25 811218 767952 916356 960122 887496 927916
832.14 1028198 1175414 1171360 1126876 1075790 1082642
835.03 1083892 1203722 1212322 1234530 1273588 1342338
837.92 1391874 1462514 1411194 1398082 1444384 1529368
840.82 1596794 1541596 1535078 1642160 1675456 1667000
843.71 1665988 1727822 1767986 1805490 1866814 1979122
846.60 2003448 2075482 2179262 2215022 2274804 2395238
849.50 2482706 2593036 2694804 2751362 2799836 2885892
852.39 3000590 3207140 3352214 3476806 3586820 3755980
855.28 3875528 4022088 4255102 4572006 4884366 5083954
858.17 5234216 5504416 5793970 6062410 6342352 6729250
861.07 7105526 7527156 7937232 8314726 8747522 9281404
863.96 9817806 10360980 10919370 11562590 12207670 12780590
866.85 13373380 14109510 14842030 15589620 16333890 17159480
869.74 17999020 18895340 19804290 20819640 21802610 22788440
872.64 23759450 24655600 25570920 26503210 27480590 28396330
875.53 29207660 29931070 30160540 30313870 30368640 30075380
878.42 29617810 29362870 29412170 29751560 30164070 30751220
881.31 31431800 31917710 32188570 32525290 32739760 32793630
884.21 32833580 33356110 35299630 39934460 44376720 44976240
887.10 43358110 41812450 41504680 42138540 43261630 43954010
889.99 43578500 42321540 41241580 40756890 40792280 41581730
892.89 43745720 48161230 52948360 54396740 52685300 50965600
895.78 50086820 49706010 49610230 50132530 50800700 51288730
898.67 51338530 51425880 51597360 51566010 51054640 50491960
901.56 50040260 49635340 49396970 49255060 49139550 48978250
904.46 48705020 48506010 48410190 48231410 47929880 47638400
907.35 47182690 46608130 46146650 45720010 45153300 44552950
910.24 43920650 43340440 42667410 41985360 41381840 40696100
913.13 39969780 39260690 38492260 37699880 36820680 35976540
916.03 35165950 34437610 33751740 33040760 32353560 31624000
918.92 30894240 30288470 29646850 29096570 28483240 27929280
921.81 27439630 26951110 26430330 25847860 25200960 24702540
924.71 24214260 23732570 23200060 22688310 22237330 21816700
927.60 21359910 20890970 20469360 20091270 19615560 19158120
930.49 18704110 18268310 17861340 17415940 16968890 16601090
933.38 16205040 15879950 15537830 15209640 14839600 14472860
936.28 14071070 13719940 13358800 13092080 12827240 12483780
939.17 12147680 11886160 11556280 11274230 11118270 10973040
942.06 10788560 10542840 10361080 10194260 10001670 9854650
944.95 9692832 9583384 9462988 9370394 9260992 9120852
947.85 8980636 8929514 8854002 8827630 8792512 8720298
950.74 8646122 8583180 8527446 8449694 8413942 8415848
953.63 8351348 8313912 8269808 8249684 8183392 8187832
956.53 8220756 8236498 8258698 8304780 8255568 8189758
959.42 8170644 8196958 8131916 8079986 7999278 8021958
962.31 7997800 7916200 7877196 7845580 7725320 7639134
965.20 7534954 7470028 7420472 7464668 7580032 7759088
968.10 8008674 8187774 7798058 7457286 7383378 7389880
970.99 7330994 7288942 7229658 7191322 7132536 7120974
973.88 7096874 7080692 7003216 6969924 6922220 6897212
976.77 6867816 6900952 6927770 6931554 6874392 6860614
979.67 6826090 6815486 6794698 6794230 6701096 6643660
982.56 6609120 6557112 6496960 6435430 6372656 6309332
985.45 6232148 6224744 6224762 6242900 6229126 6211250
988.35 6147116 6136500 6034242 5874514 5767470 5738452
991.24 5599820 5513686 5407510 5309788 5167872 5085516
994.13 5024042 5000950 4926820 4890914 4823776 4795422
997.02 4717904 4663254 4670718 4761218 4768896 4785562
999.92 4810206 4770370 4612556 4451948 4359200 4264920
1002.81 4114786 4078530 4043718 3969552 3889392 3935716
1005.70 3891936 3860636 3899094 3954720 3928792 3916886
1008.59 3867910 3837196 3842462 3912078 3916890 4001046
1011.49 4076650 4034942 3871768 3856332 3852086 3871240
1014.38 3885356 3848286 3783686 3748634 3729998 3735776
1017.27 3677126 3621654 3600084 3748418 3913410 3887080
1020.17 3640738 3531694 3500086 3506742 3475716 3503740
1023.06 3488662 3554306 3554354 3512114 3488040 3556180
1025.95 3522242 3561686 3531302 3564542 3579138 3585012
1028.84 3563976 3634166 3656582 3707500 3776072 3802972
1031.74 3754368 3766402 3769306 3857008 3906114 3937376
1034.63 3948142 4018946 4054796 4196782 4249864 4283562
1037.52 4319650 4371878 4369792 4377912 4340074 4413670
1040.41 4535680 4655284 4621356 4613140 4628312 4721122
1043.31 4786830 4806468 4800380 4867358 4894868 4952466
1046.20 4978658 4997592 5013022 5111592 5104444 5164064
1049.09 5179908 5271868 5332048 5317768 5295378 5366498
1051.99 5381558 5378388 5368548 5488038 5508080 5554084
1054.88 5543538 5611738 5626892 5708060 5760334 5872826
1057.77 5940178 6035658 6079454 6210142 6285292 6402232
1060.66 6488872 6662258 6728346 6817856 6858296 7016524
1063.56 7149944 7294192 7379074 7544170 7698218 7937568
1066.45 8069904 8299420 8395144 8593272 8763352 8974060
1069.34 9116296 9363916 9534622 9770056 9917354 10162740
1072.23 10316770 10498030 10602770 10887050 11099070 11291500
1075.13 11387270 11664800 11781230 12021420 12235160 12466150
1078.02 12636080 12957900 12996720 12993390 12992590 13229180
1080.91 13456410 13677960 13583020 13797500 13943660 14264170
1083.81 14517870 14965230 15259400 15807210 16266900 17144810
1086.70 18147520 19411340 20283040 21895190 23894860 26869830
1089.59 29521500 33574170 42972870 59701560 59167860 41112320
1092.48 31573000 30041390 35264650 45819900 41237740 26922000
1095.38 22162260 21139250 21077670 20640360 20481120 20096410
1098.27 20086780 19888500 20057600 20084970 20334600 20457580
1101.16 20796570 21011410 21347210 21534760 21822710 22000640
1104.05 22322710 22523120 22778770 22943240 23140820 23191090
1106.95 23332990 23313190 23407040 23443630 23545730 23543790
1109.84 23530480 23446550 23454340 23328450 23194630 23014660
1112.73 22887040 22640780 22404290 22179600 21952990 21549160
1115.63 21205030 20830860 20498300 20094460 19769210 19359420
1118.52 18954880 18473570 18064380 17621040 17273120 16910430
1121.41 16554860 16121840 15690310 15264660 14862700 14429900
1124.30 14033250 13661540 13351830 12960910 12610170 12244590
1127.20 11957300 11624000 11328180 10988730 10674420 10346850
1130.09 10105850 9862804 9636746 9392116 9124772 8843002
1132.98 8659364 8462120 8260714 8016676 7859378 7744200
1135.87 7646880 7447750 7293602 7162930 7022750 6868118
1138.77 6716884 6585378 6540418 6404084 6296596 6192910
1141.66 6130598 6054576 6008502 5970032 5924350 5847236
1144.55 5753220 5626390 5529852 5463600 5435724 5351392
1147.45 5293668 5269916 5222466 5203602 5220432 5224338
1150.34 5286780 5226968 5190498 5241614 5299538 5295960
1153.23 5288158 5313206 5427374 5438368 5476114 5566274
1156.12 5591488 5599256 5687200 5836520 6002106 6112174
1159.02 6241022 6327388 6467144 6624470 6772544 6965954
1161.91 7139154 7327826 7589272 7792200 8002636 8320246
1164.80 8625114 8940862 9253564 9583410 9971900 10331120
1167.69 10751260 11201300 11642380 12127180 12639230 13155790
1170.59 13698690 14302800 14987180 15635150 16331650 17058870
1173.48 17885100 18745030 19603550 20511260 21485480 22511140
1176.37 23640010 24897380 26220450 27560930 29046490 30669850
1179.26 32447080 34316070 36356760 38587810 41017780 43655490
1182.16 46530020 49636740 53075650 56810470 60886790 65376960
1185.05 70284750 75584220 81334900 87587300 94454430 101902400
1187.94 109822700 118425300 127862800 138019200 148769100 160021700
1190.84 171343000 182426400 194419700 207814800 221419400 235095400
1193.73 248715500 262696400 278211400 294736900 311961800 329398200
1196.62 346997900 365001500 382907100 400247800 417588600 434695900
1199.51 451304400 466969200 481699300 495529300 508390200 520653700
1202.41 532149200 542784000 551974500 560157200 567242800 572303000
1205.30 574228500 571966800 567816500 563820500 560106400 555570900
1208.19 550077000 543827600 537810600 532610800 529476700 528317800
1211.08 528953500 531076500 535514900 545203700 562650400 587773500
1213.98 621233500 660937000 704926700 752671400 801842400 838753200
1216.87 856059600 842742000 784822400 704218000 657333400 607453900
1219.76 485385700 410190000 406504800 421265300 440864400 462390600
1222.66 484085500 504787000 524347500 543040800 560572600 576749900
1225.55 591625500 604981400 616941200 626415900 633281700 638410900
1228.44 640258200 638406000 632929700 624192100 612236200 598059300
1231.33 582077300 565007800 545795800 523827700 500510000 476541700
1234.23 451068600 424987700 399250700 373260400 346802000 321185200
1237.12 296292100 272261200 249182100 227435000 206907600 187843800
1240.01 170017500 153491600 138196100 124263200 111633800 100260700
1242.90 90030760 80953770 72656940 65400280 58852430 53077840
1245.80 47858730 43371510 39368220 35892840 32748680 30112640
1248.69 27680450 25588650 23673560 22027950 20534800 19267010
1251.58 18089490 17138560 16153700 15299090 14494890 13878490
1254.48 13210610 12643030 12074810 11626570 11168610 10772410
1257.37 10355240 10035620 9704770 9395660 9073748 8905424
1260.26 8604960 8386936 8216940 8041514 7825242 7752856
1263.15 7604216 7466040 7301134 7225228 7073550 7015098
1266.05 6906030 6895726 6776296 6692184 6642178 6661700
1268.94 6580932 6544442 6445368 6457836 6450102 6483306
1271.83 6378576 6358404 6314746 6351094 6357668 6408516
1274.72 6396222 6479982 6460476 6501160 6496808 6573780
1277.62 6615938 6695982 6709350 6778314 6805820 6910056
1280.51 6908600 7019698 7056320 7147634 7193510 7313974
1283.40 7370728 7494136 7569528 7680994 7789244 8001770
1286.30 8143726 8302880 8393612 8663490 8953304 9423720
1289.19 9948490 10403250 10067090 9567390 9416556 9564186
1292.08 9637510 9818890 9964340 10124780 10208010 10409130
1294.97 10535110 10780200 10968330 11203890 11372690 11651190
1297.87 11879190 12171040 12418820 12745420 12986090 13345470
1300.76 13631970 13968080 14271100 14691660 15016420 15356680
1303.65 15596700 15958230 16330450 16826670 17241010 17691830
1306.54 17994290 18370700 18794700 19361140 19798630 20338640
1309.44 20817490 21376390 21888870 22626340 23297790 23940630
1312.33 24379060 25037420 25788960 26687790 27492650 28411220
1315.22 29297450 30187970 30912340 31737660 32317510 33165220
1318.12 34168740 35264750 36177840 37364360 38500950 39788200
1321.01 41048980 42549610 43964790 45587300 47119180 48821540
1323.90 50503850 52440190 54233020 56247680 58205850 60405700
1326.79 62660390 65198110 67772180 70647080 73525920 76751660
1329.69 80104340 83722100 87328060 91288450 95264660 99707180
1332.58 104304400 109396000 114579000 120282600 126226000 132679100
1335.47 139256600 146387200 153705000 161539800 169615600 178360300
1338.36 187253900 196755900 206545300 217012000 227468800 238312200
1341.26 249503200 261478800 273583000 286111500 298659100 311716300
1344.15 324618100 337822500 351037000 364622200 377673000 390715000
1347.04 403636100 416926100 429890900 443029200 454625700 466215400
1349.94 477803900 489320400 499292500 508005400 514607100 519494500
1352.83 523077200 526630200 529729800 533196300 533979400 531848600
1355.72 527071200 522762500 517868600 513424400 509434800 507825300
1358.61 510388500 521805100 545375700 582844200 609007000 603565800
1361.51 584951400 579164100 583701200 593204000 606127800 642254700
1364.40 745402400 881911000 822671400 671942500 622284500 618896700
1367.29 626941800 637458700 650814100 657567800 657260400 651480600
1370.18 646181700 641423100 639577500 637306600 634872600 630535200
1373.08 626342500 621468700 616978000 611757800 606111600 599507600
1375.97 592431300 584426100 575923100 566323600 556370800 545292700
1378.86 534651300 524253400 512716000 497748700 480327200 461689800
1381.76 443280900 424455900 406472900 388658700 371904000 355184800
1384.65 338887300 322602600 307254400 292134500 278264700 264860200
1387.54 251156700 238195500 226694400 215719600 205606300 196185800
1390.43 187738000 179685600 172410600 165643900 159709700 154173600
1393.33 149622500 145992600 141816200 137229800 134009600 130761000
1396.22 127978800 125696400 123964000 122068700 120913600 120231800
1399.11 118833000 117216900 116408300 115652100 115255100 114804800
1402.00 114660500 114482700 114597900 114675500 114994000 115212200
1404.90 115027100 114777100 115260100 115941900 117047000 118521400
1407.79 120498000 122903500 125721800 127793000 128121800 126215200
1410.68 124815000 125234600 127080700 129435700 132313100 135188900
1413.58 137940600 140082100 141827500 143010200 143971000 144709800
1416.47 146109900 147687700 148807000 150261400 153187100 156347900
1419.36 156630200 156369600 157866600 159521300 161272200 162755600
1422.25 164192500 165071300 166047900 166572200 166752400 166769800
1425.15 166995700 167091500 167233200 167139500 167002800 166429800
1428.04 165713100 164828600 164403300 163796300 162758500 162261000
1430.93 163405500 165876300 169504000 173466400 177737000 182158400
1433.82 185573200 185385500 184503000 183247400 180191700 177765900
1436.72 174619400 172670700 173200100 174203300 175950000 178384600
1439.61 180537000 180893900 179804400 177516500 175456900 173621700
1442.50 172161600 170473900 169188900 168300800 168093400 168381400
1445.40 169363900 169145000 168529300 169873500 173161700 173192800
1448.29 171189000 168612000 164734600 160035000 156158800 152579400
1451.18 149256200 145555100 142543700 140966000 143218800 155702700
1454.07 184326400 191983600 164851200 144853500 139408000 136084900
1456.97 129781500 126797500 125250800 123425500 121745100 120117200
1459.86 118648900 117590100 116519400 115387600 113655500 111687800
1462.75 109664600 107925500 106602300 106152900 104313900 101509700
1465.64 99645700 98047960 96469040 95011810 93611330 92186840
1468.54 90897500 89856570 89009840 88132670 87421540 87740060
1471.43 89146660 88929220 88551570 89329780 86832840 82707840
1474.32 79915420 78099210 77179980 76531350 74899120 73413470
1477.21 72345680 71114160 69705850 68006690 65986070 63722230
1480.11 61676610 60108310 58642580 57191320 56016590 55086080
1483.00 54554020 54361600 53682770 52418620 50932400 49477910
1485.89 48547470 48149480 48063420 46935980 45951660 45602310
1488.79 45502430 45348550 44704160 44314830 43432220 42346850
1491.68 41908630 41469360 41150610 40784990 40531120 40166800
1494.57 40003310 40353940 42319490 41998970 39631530 38859280
1497.46 38698240 39330160 39662660 38571440 37873120 37713970
1500.36 37573130 37485380 37443370 37209470 37011740 36863340
1503.25 36721500 36606640 36763780 38675420 40341610 38441510
1506.14 39424530 41127150 39267240 39539400 41504250 40322130
1509.03 38270780 37090700 36212310 35826850 35710700 36272990
1511.93 36577710 35800240 35468900 35525650 35696640 35970300
1514.82 35825240 35543140 35962650 36424840 36866500 36512340
1517.71 35550580 35215030 35292520 35888260 36901860 37710780
1520.61 40323680 39912410 37417180 37629230 37082740 36265680
1523.50 36101030 36468860 37320310 38543540 37896080 37084060
1526.39 37105510 37122020 36546790 36448710 36239050 35706640
1529.28 35449560 35398940 35391070 35523660 35622900 35483860
1532.18 35708090 36421460 36956100 36687890 35373450 35050030
1535.07 35037770 35087580 35057280 35211850 35043790 35269200
1537.96 36722200 39898170 38697600 37510000 38116680 35822330
1540.85 35084360 36915660 37098580 34890940 34383840 34130660
1543.75 33894410 34459500 35193020 34087470 33206860 32948300
1546.64 32894600 32845070 32956720 33203170 33681500 33917090
1549.53 33567570 32688420 31928810 31667110 31578430 31582460
1552.43 31560910 31711800 32894380 34171670 32396080 30984480
1555.32 30579820 30512480 30728350 32231690 33143030 34748060
1558.21 35060340 32217780 33073330 34973740 32701270 29584940
1561.10 29090880 28875650 28953660 28767260 28668970 28327360
1564.00 28518940 28418750 27802910 27216510 26988900 26698390
1566.89 26573920 26307720 26333100 26477970 27136810 27659760
1569.78 26378820 25145640 24825410 24421290 24185640 23797380
1572.67 23551510 23177750 23006650 22704760 22724820 24121570
1575.57 27425920 25659480 22226030 21389150 21050550 20746740
1578.46 20507010 20302760 20082810 19882990 19703870 19514300
1581.35 19334720 19112190 18913350 18671580 18490630 18317890
1584.25 18149100 17926090 17776810 17650750 17501050 17324130
1587.14 17174650 16958200 16827600 16626450 16442830 16245810
1590.03 16071470 15861750 15656240 15355960 15159850 14959230
1592.92 14810030 14622160 14524320 14266170 13997960 13771240
1595.82 13643090 13392560 13163570 12921630 12764990 12577770
1598.71 12417270 12230450 12079650 11874090 11758120 11554780
1601.60 11368200 11199080 11076430 10873750 10713110 10533730
1604.49 10402500 10234570 10127710 9985050 9962020 9832332
1607.39 9658284 9506162 9488226 9470492 9321996 9053308
1610.28 8950300 8741018 8670714 8571374 8507326 8350586
1613.17 8364130 8239216 8225896 8115568 8316932 9564960
1616.07 12768130 11825020 8660694 7886794 7689100 7650836
1618.96 7602558 7600350 7615954 7635544 7568670 7483118
1621.85 7519880 7814416 8871264 8964814 7765626 7401274
1624.74 7251046 7166124 7053024 7073028 7231250 7836922
1627.64 7672812 7124766 7016074 7018036 6976894 6981936
1630.53 6968264 6989036 6985830 7045424 7064032 7133292
1633.42 7208362 7774364 9190640 11286890 11227140 8549898
1636.31 7731482 8088588 8164046 7674070 7634954 7649836
1639.21 7806430 7889088 7964062 7956874 8113108 8205398
1642.10 8368566 8399208 8548770 8622214 8823442 9128290
1644.99 10881480 12867670 11366470 10216320 10802620 10751810
1647.89 10853150 10353070 10237360 10251100 10493890 10573490
1650.78 11036510 12494910 16434170 17799220 18331710 15952430
1653.67 13705020 13850410 12573440 12174210 12148660 12310830
1656.56 12359490 12562000 12594150 12745480 12809960 12997580
1659.46 13056980 13191000 13295530 13530520 13695330 14621550
1662.35 15442750 14597830 13927670 13993530 14104600 14337390
1665.24 14569550 15024110 15662110 16554580 17436290 18465450
1668.13 19240020 20848690 21097200 19641220 19314220 19879610
1671.03 20576770 20345880 20334670 20775660 21314700 21909920
1673.92 22862750 25099610 26690110 25645710 25109380 25571450
1676.81 26192560 26814340 27417490 28029970 28778830 29641830
1679.71 30430660 30993790 31362170 31960860 32700110 33927600
1682.60 35621010 36562010 37776100 41755640 43259690 39653960
1685.49 38861740 39586210 40731470 41789540 43250700 44603740
1688.38 45830420 47124410 48995570 50630830 52268970 54089280
1691.28 56234190 58253720 60450640 62568920 65026520 67510890
1694.17 70593840 74924820 82276480 86525170 86898750 90721480
1697.06 96593660 102882300 109695800 116968800 125628800 134300600
1699.95 140069900 144735300 149373400 156170900 164312500 173096400
1702.85 182537000 192934500 204350500 215458000 226712400 239611600
1705.74 253675300 267399200 281290200 296281000 312015400 328419200
1708.63 345421700 362866300 380746100 398840900 417096300 435717200
1711.53 454414800 473435600 492415400 511233400 529873000 548144600
1714.42 566821900 584589400 600653900 617418000 635673300 654927400
1717.31 668530200 680855700 694750000 707428000 719903200 732244400
1720.20 744284600 756125200 767476900 778374500 789261800 799539100
1723.10 809347600 818346000 826742100 834874400 842849900 850457900
1725.99 857570300 864036100 870964900 877678000 881207700 879398400
1728.88 874110000 867891600 861814600 857254700 856073200 859977300
1731.77 871849900 891218400 918384400 950671400 989190700 1027492000
1734.67 1056800000 1081956000 1102802000 1117166000 1125441000 1130412000
1737.56 1134234000 1137807000 1139775000 1138955000 1132199000 1119781000
1740.45 1106203000 1093771000 1084468000 1077161000 1068738000 1059097000
1743.34 1049921000 1041706000 1033555000 1024025000 1012639000 999650000
1746.24 985946400 972040500 958481200 946247100 934590700 922700600
1749.13 911388400 901874600 895236400 890732900 882969800 870457600
1752.02 856738200 842240100 826575900 808961200 789221800 768818600
1754.92 749784400 732261100 716058500 700543600 684641300 670523400
1757.81 658183200 646715500 635436000 624122900 612999400 602521000
1760.70 593429600 583132000 566162400 546861500 529656600 513003900
1763.59 496291000 479814200 464387100 449684000 435419600 421566900
1766.49 408155800 395136300 382955600 370405600 358639300 349460600
1769.38 341422600 333534900 324363500 313888400 303727000 296939800
1772.27 294191500 292008900 284112200 270745600 256766800 243011900
1775.16 230106100 219044500 211078300 206021100 203021600 200298800
1778.06 196082500 190648300 185339300 180773400 177010800 173270600
1780.95 169705400 166966500 164614400 162368300 160051600 157910000
1783.84 155867000 154074400 151861300 149798700 148268800 146639900
1786.74 144317200 140941300 136577600 131773000 126784700 122390500
1789.63 119005300 116745500 114966900 112899800 111543800 110944700
1792.52 108191000 104404400 101608500 98935660 96316340 93641780
1795.41 90929700 87995790 85187780 82536540 80017770 77649860
1798.31 75535740 73835900 72148440 70022170 68276620 66767200
1801.20 64943080 63149480 61475510 59480080 57756450 56108480
1804.09 54570760 53095670 51823070 50505590 49267630 48006130
1806.98 46812820 45426440 44085880 42801610 41569400 40400880
1809.88 39510490 38316080 36842400 35674310 34662840 33536960
1812.77 32444800 31407280 30434700 29463270 28568500 27702530
1815.66 26923200 26130550 25470650 24811790 24057120 23338000
1818.56 22701310 22112090 21531870 20954370 20434660 19895990
1821.45 19406320 18963970 18548430 18081380 17716150 17389630
1824.34 17531580 17539840 16615710 15908890 15548200 15222880
1827.23 14937320 14667430 14562360 14469780 14488510 14681810
1830.13 13858760 13052740 12726710 12448580 12232880 12006420
1833.02 11788060 11612910 11509220 11428560 11361310 11206200
1835.91 10986910 10814700 10676130 10416220 10236270 10050040
1838.80 9933194 9880162 9966530 9863160 9596308 9358966
1841.70 9320474 9180476 9078096 9519414 10681570 9770438
1844.59 8248960 7821214 7549772 7326436 7187864 7229596
1847.48 7092288 6771028 6555590 6395414 6255944 6108552
1850.38 5960776 5846270 5749062 5635992 5518480 5409832
1853.27 5325840 5253156 5193008 5090862 5009748 4927810
1856.16 4862888 4769308 4720412 4626690 4532064 4400616
1859.05 4324048 4263860 4210338 4143252 4096400 4012544
1861.95 3947062 3884642 3830642 3785606 3774108 3751136
1864.84 3724464 3731904 3784940 3668272 3666086 3890910
1867.73 3808602 3775142 4375256 4127914 3489268 3382142
1870.62 3336566 3256162 3210912 3203368 3193634 3158930
1873.52 3135448 3112010 3056464 3027118 3009644 2970690
1876.41 2926122 2890496 2859716 2837098 2810436 2772024
1879.30 2749138 2693150 2674254 2648846 2608258 2614316
1882.20 2610118 2544882 2506982 2498838 2514452 2487104
1885.09 2484832 2503620 2573452 2659760 2726426 2569214
1887.98 2400058 2428036 2699040 2502034 2133820 2052986
1890.87 2034422 2016464 1988458 1958138 1955728 1986418
1893.77 1972748 2017194 2099762 1998590 1924664 1884778
1896.66 1876048 1871552 1840528 1825234 1791664 1761742
1899.55 1762254 1753196 1714088 1681990 1645568 1598330
1902.44 1577908 1574272 1548704 1506244 1459462 1438258
1905.34 1410378 1370530 1341714 1313334 1354498 1325660
1908.23 1232972 1204506 1307100 1311942 1158236 1101172
1911.12 1076648 1064792 1033706 985246 965908 951498
1914.02 921882 895414 862640 878076 884888 912126
1916.91 1119518 1713962 1498428 923256 825848 778224
1919.80 781276 800754 835486 859382 958404 1035658
1922.69 1114900 957300 844842 808306 799212 787194
1925.59 816334 816724 813244 793728 783080 785408
1928.48 785722 774166 793398 805342 795490 784748
1931.37 785184 785764 805076 815730 833944 835344
1934.26 817296 832610 828380 815660 842834 869884
1937.16 875962 860062 874600 865950 843448 866586
1940.05 901594 902266 935742 1073534 1360558 1214194
1942.94 974378 943642 945144 987860 1029446 1043086
1945.84 1059324 1048968 1054250 1065338 1055878 1070716
1948.73 1121522 1138170 1135520 1162562 1172192 1195708
1951.62 1254636 1260054 1286546 1317180 1320458 1336492
1954.51 1382412 1386040 1374078 1401466 1446360 1479976
1957.41 1523834 1555906 1551126 1568882 1607018 1631566
1960.30 1677860 1703818 1734648 1747628 1756982 1789066
1963.19 1820578 1839750 1853788 1861374 1911802 2012678
1966.08 2049866 2141314 2221372 2131164 2143858 2182898
1968.98 2175270 2151702 2176698 2195094 2250290 2243742
1971.87 2231888 2284418 2334650 2365046 2404782 2404660
1974.76 2394972 2381490 2394698 2423804 2450148 2427472
1977.66 2424476 2475594 2527220 2528464 2509860 2518132
1980.55 2516446 2467536 2450976 2447892 2468438 2477768
1983.44 2461152 2427858 2450214 2456230 2497468 2516794
1986.33 2489070 2470026 2496712 2484072 2401206 2276080
1989.23 2242308 2205098 2207608 2279822 2492362 2546108
1992.12 2404160 2303746 2261806 2268316 2293198 2301968
1995.01 2215966 2046558 1988844 1987976 1950364 1936532
1997.90 1922578 1928074 1909544 1846904 1803542 1783922
2000.80 1772950 1727344 1686612 1676172 1664300 1609046
2003.69 1566544 1526206 1476414 1438868 1397874 1323160
2006.58 1254768 1215456 1173522 1109368 1066636 996090
2009.48 923378 879346 882964 828142 758654 715846
2012.37 680416 646970 607724 587098 568898 510974
2015.26 473532 490814 572504 520188 449178 454296
2018.15 428552 399494 395800 392358 384224 366808
2021.05 372394 371632 374984 354096 334780 305868
2023.94 320104 344558 350728 349158 353672 358234
2026.83 323874 306356 313536 328972 342278 324934
2029.72 335410 335926 328930 322712 302624 327564
2032.62 343528 313134 298566 336090 359758 368828
2035.51 375488 361742 347876 337012 350020 354456
2038.40 375360 382490 381158 370272 372216 394410
2041.29 409030 403962 412246 392652 378642 416014
2044.19 451768 471668 476840 443894 423100 426106
2047.08 452272 473612 467830 465568 491924 499204
2049.97 471898 474238 514694 525240 561956 564250
2052.87 555908 568724 565042 592678 631418 617434
2055.76 646916 649804 644828 622916 663720 718838
2058.65 735618 720716 739238 756798 768650 793306
2061.54 807124 819500 844236 863832 912270 957300
2064.44 984706 982066 995096 1003222 1031210 1035706
2067.33 1066170 1094994 1133082 1176286 1216958 1250206
2070.22 1287232 1320772 1374488 1402694 1430178 1437732
2073.11 1471698 1536462 1566508 1611642 1692628 1764372
2076.01 1808764 1845542 1899776 1962616 2043812 2139202
2078.90 2204468 2263414 2305390 2385922 2490486 2566458
2081.79 2661314 2761798 2865144 2967322 3072484 3165298
2084.69 3276868 3373888 3492790 3600250 3699114 3817336
2087.58 3947902 4068246 4192876 4308992 4430854 4527154
2090.47 4632244 4762122 4880102 4992558 5102038 5256904
2093.36 5366136 5401072 5483438 5585794 5706454 5813642
2096.26 5863962 5902982 6030668 6210156 6387930 6559338
2099.15 6690536 6778656 6862478 6849664 6795216 6760410
2102.04 6781230 6846704 6989182 7180700 7400342 7618824
2104.93 7856768 8096378 8292464 8450064 8570790 8637896
2107.83 8680374 8707640 8751022 8817902 8901652 9041710
2110.72 9244410 9467122 9674036 9857548 10014140 10173620
2113.61 10337740 10473980 10604060 10707740 10819460 10979980
2116.51 11136540 11263720 11407600 11525360 11622650 11707880
2119.40 11805800 11917390 12046140 12137100 12201750 12274670
2122.29 12350170 12444610 12507700 12535480 12586990 12613930
2125.18 12596950 12561040 12572170 12555340 12533490 12523560
2128.08 12542890 12548460 12539780 12515440 12491780 12495350
2130.97 12511670 12509100 12494060 12460190 12453740 12485460
2133.86 12539620 12602310 12626140 12619990 12489130 12227750
2136.75 12054310 11953570 11871080 11775160 11688700 11578090
2139.65 11510300 11495460 11501600 11535820 11611870 11650790
2142.54 11761910 12060860 12365150 12514210 12508210 12208420
2145.43 11595690 11048210 10730250 10545850 10448150 10351000
2148.33 10247430 10135330 10018620 9874406 9707668 9554778
2151.22 9411962 9292782 9181874 9000526 8784616 8578198
2154.11 8411324 8228274 8067642 7871922 7610790 7375832
2157.00 7158962 6905438 6689898 6478794 6257134 6006972
2159.90 5750300 5513142 5272570 5042828 4786550 4549392
2162.79 4382732 4209690 4004960 3782790 3620748 3492016
2165.68 3330148 3171872 3053610 2934306 2795268 2700778
2168.57 2625108 2530590 2435476 2334438 2234564 2137312
2171.47 2057704 2003408 1974182 1935880 1902928 1884430
2174.36 1853986 1804644 1762706 1744572 1689788 1648274
2177.25 1630574 1618464 1630706 1587640 1540360 1538992
2180.15 1494696 1426600 1432500 1451308 1385670 1287036
2183.04 1277152 1350428 1421342 1437196 1418986 1394936
2185.93 1356396 1307750 1270110 1220894 1169694 1153508
2188.82 1205336 1275276 1319236 1313782 1304808 1321316
2191.72 1330760 1289074 1264604 1243972 1243726 1264748
2194.61 1265954 1262952 1240384 1233166 1259108 1280882
2197.50 1292930 1314316 1307250 1321398 1330262 1301516
2200.39 1305046 1326326 1349402 1375910 1368984 1364186
2203.29 1396860 1401692 1390468 1399892 1432238 1417186
2206.18 1425606 1492106 1554114 1561390 1601162 1643910
2209.07 1694192 1773864 1826690 1844986 1880344 1909116
2211.97 1930968 1913722 1952730 1996890 2003694 1987438
2214.86 1963318 1953562 1968534 2010324 2033904 2049926
2217.75 2104324 2157310 2198722 2222698 2236584 2283682
2220.64 2321312 2357454 2433116 2504052 2564770 2654156
2223.54 2749078 2822404 2898230 2972322 3091528 3169614
2226.43 3211054 3227294 3243164 3296746 3390908 3502708
2229.32 3587956 3642936 3716100 3750836 3771886 3831908
2232.21 3862780 3908018 3932242 3945120 3967608 3997982
2235.11 4022676 4061016 4129116 4188120 4206246 4253468
2238.00 4319706 4371290 4379938 4436014 4516224 4565390
2240.89 4613656 4668312 4730046 4823394 4925046 5058010
2243.79 5272144 5461112 5521352 5417112 5294190 5225020
2246.68 5115324 4905290 4721456 4627558 4587442 4589092
2249.57 4619110 4639344 4672298 4717800 4776252 4859822
2252.46 4902828 4887086 4904160 4941158 5001526 5022850
2255.36 5033902 5019768 4992856 4981324 4956072 4953690
2258.25 4933696 4897700 4867854 4835286 4833714 4812692
2261.14 4745912 4661866 4616944 4602100 4541458 4428700
2264.03 4331262 4245124 4146024 4068914 4063970 4037268
2266.93 3959052 3899274 3838770 3765830 3695322 3652674
2269.82 3598968 3538712 3501180 3472926 3418044 3381746
2272.71 3353654 3273360 3200286 3133226 3066484 3023558
2275.61 2968718 2913644 2880148 2816540 2769310 2733658
2278.50 2644180 2566766 2552796 2510464 2467044 2432966
2281.39 2442516 2423168 2369640 2300948 2259954 2243354
2284.28 2209640 2137552 2095916 2093002 2097544 2082632
2287.18 2055356 2032104 2016622 1963802 1933234 1912782
2290.07 1886926 1897312 1894214 1872596 1863368 1845102
2292.96 1819430 1781470 1763030 1746980 1706180 1702766
2295.85 1690062 1646810 1648014 1633810 1631614 1612986
2298.75 1593236 1600604 1604876 1615834 1596622 1537070
2301.64 1516884 1524098 1491416 1477304 1465640 1500100
2304.53 1501620 1483404 1489282 1534158 1546776 1510322
2307.43 1499586 1520836 1563420 1540580 1473410 1519778
2310.32 1583362 1599110 1574710 1603770 1615274 1622726
2313.21 1549528 1536828 1595176 1677450 1568400 1483088
2316.10 1519252 1664738 1633424 1581382 1647582 1746394
2319.00 1621518 1464378 1475104 1661648 1668572 1484158
2321.89 1496368 1728802 1709394 1520852 1574376 1836008
2324.78 1815310 1537784 1605050 1889300 1854558 1630218
2327.67 1753744 1993134 1808724 1519026 1700154 1932812
2330.57 1664286 1459356 1782714 1922642 1572170 1524410
2333.46 1946012 1896642 1495260 1603418 1930902 1680570
2336.35 1409694 1714026 1856242 1480514 1472324 1851874
2339.24 1699490 1378080 1632560 1780058 1442800 1376540
2342.14 1631134 1512638 1301738 1442150 1499568 1318106
2345.03 1392414 1521884 1373282 1249474 1282012 1240210
2347.92 1141384 1102834 1116356 1138868 1113218 1135790
2350.82 1237946 1198758 1130994 1271010 1258002 1091614
2353.71 1289438 1316134 1139420 1367006 1370602 1108880
2356.60 1368896 1377476 1169112 1445330 1353682 1115692
2359.49 1399930 1271190 1145460 1433528 1158546 1141066
2362.39 1368290 1076534 1224312 1264826 1049980 1235658
2365.28 1050772 998050 1130088 890478 1042682 1004390
2368.17 909946 997710 812278 881988 830324 770768
2371.06 793680 682586 732862 656996 694008 650484
2373.96 592852 602828 542402 574746 571328 549022
2376.85 482824 443880 388056 398616 387552 379680
2379.74 395622 409584 363614 313664 330150 359784
2382.64 350010 347256 363564 363820 348332 333122
2385.53 318318 309622 313088 320434 318788 302172
2388.42 303628 346214 368052 338670 350014 388994
2391.31 399394 374806 358860 374516 433076 457784
2394.21 458556 490750 502220 502576 526628 548760
2397.10 552754 591130 605222 631748 656254 650828
2399.99 668822 672886 722544 785366 812940 846242
2402.88 918548 949976 956952 986074 1042398 1067120
2405.78 1065280 1082322 1120470 1154312 1197108 1211056
2408.67 1242552 1297120 1338284 1350090 1377428 1428024
2411.56 1480674 1527676 1553774 1568012 1599846 1616418
2414.46 1621478 1636960 1697600 1752040 1795114 1801772
2417.35 1814456 1874622 1907654 1903882 1921566 1959474
2420.24 1992230 2021924 2017310 2015812 2043190 2081178
2423.13 2134938 2120240 2098372 2105652 2142640 2133410
2426.03 2122974 2114938 2124670 2114318 2117030 2146056
2428.92 2178882 2194548 2212194 2236598 2241604 2187970
2431.81 2180428 2176884 2129732 2114346 2123586 2116190
2434.70 2110624 2080552 2099056 2131702 2083630 2057204
2437.60 2084828 2058364 2036896 2059940 2115524 2153836
2440.49 2172106 2212334 2266580 2388476 2543484 2532298
2443.38 2361694 2171950 2048678 1989034 1955114 1922196
2446.28 1913804 1895846 1915788 2011948 2165332 2354538
2449.17 2430702 2236588 1936576 1664600 1471768 1332170
2452.06 1237038 1151658 1080938 1024242 1003652 1008140
2454.95 976810 919682 917230 920690 897758 854920
2457.85 775062 740328 735220 734092 734254 729116
2460.74 725154 716926 692094 695584 704996 689644
2463.63 665414 644906 677096 672186 653024 630648
2466.52 620666 595796 570334 574632 597526 587092
2469.42 588336 574238 563308 564390 569972 568000
2472.31 586818 628872 638976 577092 599704 614688
2475.20 614434 621708 619790 598546 620024 646420
2478.10 665978 667224 705330 750316 753448 733286
2480.99 729820 749978 791396 815228 844932 833740
2483.88 826082 863240 894310 888498 876142 877840
2486.77 941090 972370 984628 958272 935798 955400
2489.67 955724 989962 1004582 974866 988096 1019774
2492.56 1031956 1041402 1049532 1063324 1101060 1103898
2495.45 1091644 1069336 1052868 1063228 1120404 1150682
2498.34 1172054 1193798 1188036 1175438 1191178 1183056
2501.24 1198464 1221228 1248804 1299458 1294464 1297170
2504.13 1314858 1344346 1336094 1315818 1287200 1284030
2507.02 1325644 1359606 1348566 1354164 1374870 1397996
2509.92 1401496 1364012 1348818 1347386 1344342 1338204
2512.81 1319744 1307884 1333148 1296406 1283330 1298396
2515.70 1329880 1362592 1361774 1311350 1323854 1347182
2518.59 1318342 1312202 1340292 1297092 1320610 1324010
2521.49 1275692 1290188 1332830 1357708 1415474 1471564
2524.38 1517576 1508098 1456804 1475366 1475428 1424230
2527.27 1459062 1499794 1530992 1539408 1535778 1576206
2530.16 1635560 1646938 1661784 1659702 1682660 1720546
2533.06 1748214 1763098 1782144 1794014 1795770 1835366
2535.95 1916442 1954278 1983684 2008354 2037994 2092474
2538.84 2136350 2157046 2163642 2181034 2245694 2285476
2541.74 2322336 2345440 2444570 2560280 2601714 2591020
2544.63 2626398 2709290 2755842 2818990 2916932 3022136
2547.52 3122124 3188166 3287080 3363660 3393760 3464578
2550.41 3569490 3689564 3804750 3876750 3962442 4076984
2553.31 4218610 4280838 4339688 4434372 4545780 4636136
2556.20 4728638 4825184 4916800 4997482 5075718 5194288
2559.09 5298126 5334990 5405772 5439222 5490044 5567446
2561.98 5597198 5602884 5652082 5679110 5682210 5687996
2564.88 5684870 5667844 5679464 5718438 5717972 5749720
2567.77 5822448 5867888 5909674 6012650 6107732 6116274
2570.66 6092898 6093078 6142628 6283946 6479730 6692164
2573.56 7012448 7410790 7663518 7373580 6525582 5838200
2576.45 5559232 5512730 5553208 5588886 5549860 5519870
2579.34 5502712 5494600 5563526 5676062 5780956 5851820
2582.23 5939038 5994130 5995412 5963738 5932560 5919100
2585.13 5887850 5828464 5781498 5669116 5563998 5471116
2588.02 5400418 5280550 5139944 4992874 4843306 4698114
2590.91 4520812 4369848 4224190 4055866 3859794 3688110
2593.80 3515708 3342402 3209132 3029010 2868534 2735906
2596.70 2577998 2423514 2286562 2191100 2112570 2009844
2599.59 1901622 1776882 1716102 1642542 1545928 1485232
2602.48 1448856 1411152 1346570 1298300 1289834 1259500
2605.37 1200512 1195342 1143172 1084142 1066060 1040022
2608.27 1008458 1026348 1048174 1018432 1013800 1017820
2611.16 1016488 1010596 993668 1003392 1023798 1023830
2614.05 1019612 967812 940014 958118 965950 911280
2616.95 924298 983122 970342 934448 939162 967698
2619.84 1008836 1033928 1016764 1008816 1003166 1007038
2622.73 1014438 1023130 1014780 1005012 1026630 1038320
2625.62 1054684 1080558 1107044 1151316 1185420 1163422
2628.52 1136922 1148836 1179572 1198394 1166106 1132080
2631.41 1117564 1127784 1174546 1222034 1198706 1169128
2634.30 1216606 1245362 1242654 1270002 1227998 1198366
2637.19 1233122 1241056 1261890 1301332 1306686 1287600
2640.09 1289300 1283480 1257130 1289788 1313424 1268544
2642.98 1301754 1333934 1332098 1316424 1284630 1256904
2645.87 1288302 1315762 1300922 1282926 1233798 1246492
2648.77 1243112 1208728 1221480 1244332 1246554 1218090
2651.66 1186132 1175472 1207006 1209488 1216098 1195412
2654.55 1177956 1202180 1192244 1177326 1215702 1231272
2657.44 1169814 1134442 1145754 1145434 1146906 1083886
2660.34 1066426 1134960 1184478 1116324 1043456 1040464
2663.23 1037580 1030772 1014922 967646 961808 952748
2666.12 935992 916226 837164 865752 888294 868256
2669.01 842730 847184 848704 800020 749424 749492
2671.91 747488 721458 719604 705504 691610 690808
2674.80 674832 665908 667958 634210 634294 652690
2677.69 642414 691052 711992 655476 641552 689230
2680.59 724424 701446 683064 699830 699976 721536
2683.48 747398 720982 707556 733228 720870 704688
2686.37 705088 744660 814904 807344 790592 770430
2689.26 793508 820316 817552 826100 805194 790658
2692.16 789096 786844 790216 810996 822874 805336
2695.05 788332 827716 834428 803168 814188 850266
2697.94 918470 956828 921868 848748 817284 815386
2700.83 847500 901092 880918 869646 933042 981422
2703.73 995256 1018550 1075296 1149598 1186700 1189702
2706.62 1159842 1143116 1161516 1120316 1122994 1167256
2709.51 1159524 1192734 1282654 1285456 1211308 1233620
2712.41 1250472 1240882 1245092 1278976 1282002 1283734
2715.30 1282064 1242280 1180332 1178124 1171248 1181942
2718.19 1195892 1222116 1155972 1109800 1107938 1050420
2721.08 1027516 1026112 1043716 1051666 1039732 1025984
2723.98 1013352 987402 990260 1007438 971836 969094
2726.87 1020084 985224 976670 992268 950122 913062
2729.76 888856 812714 841228 919884 948552 963526
2732.65 1006732 980092 944750 954572 990240 991750
2735.55 1011000 1041368 1035042 1024678 1001462 948840
2738.44 926874 955684 990180 1003816 1055818 1099494
2741.33 1082932 1066256 1027248 1046922 1063264 1085500
2744.23 1123572 1124472 1096842 1107550 1124602 1134818
2747.12 1129258 1163588 1207278 1225910 1238888 1264568
2750.01 1295860 1291132 1311022 1342402 1369188 1367044
2752.90 1400284 1445480 1485660 1549410 1552278 1514696
2755.80 1553138 1600480 1626180 1673684 1729274 1764814
2758.69 1780564 1853846 1928398 1987190 2023970 2052288
2761.58 2127532 2193854 2255454 2273306 2292604 2390584
2764.47 2476702 2521094 2528978 2559914 2635684 2713920
2767.37 2824640 2892516 2913268 3000564 3057200 3124550
2770.26 3241066 3363876 3472036 3527626 3616114 3717476
2773.15 3795254 3926964 3988806 4024890 4102636 4131366
2776.05 4226456 4355266 4496694 4635906 4741542 4769000
2778.94 4742074 4744240 4729490 4753058 4854682 4935650
2781.83 4998552 5017462 5050790 5080962 5109772 5164412
2784.72 5268022 5318382 5396738 5478624 5503262 5558566
2787.62 5591540 5666592 5810098 5873086 5828890 5871066
2790.51 5928440 5954372 5966344 5977204 6046916 6114144
2793.40 6173030 6231238 6277638 6392900 6500630 6529790
2796.29 6619358 6743644 6788710 6809982 6764474 6627842
2799.19 6596592 6581778 6545714 6587976 6628988 6689734
2802.08 6702458 6673278 6686914 6735820 6715720 6645466
2804.97 6670854 6777180 6834510 6810616 6760600 6701882
2807.87 6685682 6688450 6704502 6720988 6716914 6716916
2810.76 6649468 6686012 6735098 6725184 6758218 6757016
2813.65 6815104 6897244 6907902 6885998 6900750 6930574
2816.54 6914288 6965396 7007562 7033932 7035772 7084408
2819.44 7167674 7286984 7410608 7560888 7614694 7612620
2822.33 7730200 7808754 7880938 8097650 8277384 8328934
2825.22 8457910 8687380 8819294 8932956 9096836 9298822
2828.11 9475404 9600828 9812352 10029070 10221110 10478980
2831.01 10749230 11027670 11283960 11527320 11779360 12068280
2833.90 12279800 12468580 12703780 12964510 13256850 13532640
2836.79 13783290 14018000 14193860 14407720 14656130 14858530
2839.69 15099370 15319210 15544720 15762290 15903130 15996750
2842.58 16214950 16411370 16572800 16698720 16835210 16969510
2845.47 17123700 17299640 17450860 17532910 17672540 17808610
2848.36 17918770 18069510 18219000 18395800 18511690 18634840
2851.26 18819520 18934200 19042190 19186190 19337970 19438590
2854.15 19478710 19517060 19616480 19770520 19909410 20021580
2857.04 20081120 20102050 20144020 20223480 20224640 20247390
2859.93 20310660 20404220 20532960 20654250 20837520 21049720
2862.83 21247110 21454660 21585690 21573500 21465340 21354570
2865.72 21288210 21158030 21080540 21062720 21044040 21053040
2868.61 20995230 20853780 20740970 20579840 20426140 20383350
2871.51 20308550 20183290 20101780 19973270 19808590 19720720
2874.40 19704560 19590790 19454420 19334420 19293310 19263780
2877.29 19203370 19120080 19049660 19010120 18920760 18875410
2880.18 18827530 18777080 18745620 18718420 18695080 18654000
2883.08 18678600 18709470 18720110 18714540 18819470 18898420
2885.97 18886880 18969650 19089250 19178640 19294690 19366200
2888.86 19470380 19633340 19811850 20048470 20328930 20681410
2891.75 21116610 21394590 21522550 21687080 21842630 22034130
2894.65 22210790 22493940 22850310 23279870 23730090 24158550
2897.54 24627970 25179190 25634240 26107880 26618240 27160270
2900.43 27773290 28380960 29032290 29706050 30360620 31097910
2903.32 31888800 32711330 33600940 34535340 35500860 36417750
2906.22 37427420 38484500 39499500 40569940 41579370 42656800
2909.11 43937400 45395740 46861980 48229810 49543980 50845870
2912.00 52139640 53536430 54973220 56385780 57678390 59053810
2914.90 60501260 61908330 63343940 64826130 66249440 67537390
2917.79 68751130 69922410 71014500 71941940 72782790 73609350
2920.68 74378770 75057520 75869540 76676830 77305140 77976860
2923.57 78773380 79428620 79937120 80384140 80770570 81086020
2926.47 81376200 81798940 82292740 82856920 83765000 84505220
2929.36 84386600 83826380 83459130 83233160 83017260 82829900
2932.25 82616540 82558660 82815040 83446260 84540560 86023100
2935.14 87701940 89550400 91419830 93181090 94747060 96066550
2938.04 97266410 98416780 99485210 100473000 101637600 102996800
2940.93 104515400 105726800 106030900 106167100 106459800 106801400
2943.82 107250600 107690300 107957700 108339600 108664800 108823600
2946.72 108866800 108736100 108502800 108138200 107724000 107172100
2949.61 106454100 105806200 105086300 104216600 103319600 102484100
2952.50 101776300 100969500 100027300 99008490 97933100 96995390
2955.39 96077300 95245180 94577030 94148020 93177000 91940300
2958.29 90883940 89606770 88156980 86938100 86237820 85778690
2961.18 85474590 85487790 85627190 86051530 86847350 88306110
2964.07 90397390 93184940 96875900 101908400 108495300 116245100
2966.96 125187400 137085600 155600900 188380100 241304400 286107600
2969.86 279275700 242069200 209103800 184009600 162501900 143715800
2972.75 128493200 116988100 108363200 101881700 96937540 93014220
2975.64 90251500 88367620 86797150 85342420 84101560 83238160
2978.54 82936500 83074350 83446540 83877130 84330470 84927420
2981.43 85766440 86874630 88132040 89445310 90784280 92000140
2984.32 93023380 94100520 95246260 96327460 97409480 98311380
2987.21 99132310 99945010 100789100 101625900 102396500 103211800
2990.11 104048100 104787800 105499200 106338400 107206700 108103200
2993.00 108970900 109934800 111000400 112148600 113242700 114263300
2995.89 115237600 116182200 117217500 118299000 119424600 120440600
2998.78 121412700 122405100 123363000 124178700 124931700 125629900
3001.68 126205600 126724400 127169600 127527200 127845400 128079900
3004.57 128040700 127859800 127600000 127458800 127408200 127134600
3007.46 126545500 126048600 125592600 125048200 124453500 123912400
3010.36 123365200 123265600 123536000 123963300 124615500 125762800
3013.25 127403300 129583500 132039400 134296000 136013800 137793600
3016.14 141039400 143509700 137692400 127401300 121726900 120069300
3019.03 119927500 120301800 120954200 121873800 122885100 123592800
3021.93 124037800 124426700 124895500 125288000 125715600 126036700
3024.82 126218700 126276500 126447300 126592300 126437600 126135600
3027.71 125630300 124884000 123940600 122680100 121253800 119621100
3030.60 117804100 115791800 113579500 111200600 108628600 105971200
3033.50 103360200 100665700 98119700 95557340 92973270 90484100
3036.39 88051220 85561860 83093340 80653830 78328210 76071720
3039.28 73817510 71675240 69650590 67504150 65503520 63793740
3042.18 62370570 61167320 60079540 59136560 58243900 57380130
3045.07 56556090 55789750 55047770 54286520 53528180 52855720
3047.96 52284910 51724950 51249310 50744290 50249640 49864830
3050.85 49559200 49238980 48976060 48766400 48633600 48542160
3053.75 48487740 48391350 48228870 48054690 47898010 47666140
3056.64 47457070 47247920 47007850 46809860 46652740 46439540
3059.53 46232090 46039490 45867220 45686460 45586950 45532790
3062.42 45477290 45343980 45285280 45348680 45362860 45258360
3065.32 45066480 44899320 44808530 44643300 44552380 44524080
3068.21 44487440 44463180 44384620 44247720 44113930 43991320
3071.10 43855440 43672030 43616570 43500560 43285580 43081660
3074.00 42863650 42558520 42234310 41966640 41732080 41494510
3076.89 41176140 40906200 40784760 40652530 40453540 40138910
3079.78 39924940 39744410 39456640 39177780 38994460 38787810
3082.67 38505040 38205640 37806790 37437100 37107500 36781240
3085.57 36483740 36177120 35920680 35657600 35383130 35139590
3088.46 34878680 34532960 34213590 33853030 33543680 33117080
3091.35 32518900 31939680 31468220 30909220 30335950 29846120
3094.24 29424570 28978150 28454050 27951660 27537690 27087770
3097.14 26708240 26394250 26099060 25813830 25516130 25163490
3100.03 24837940 24514900 24175500 23770200 23329160 22982800
3102.92 22678780 22243240 21771400 21403900 20980600 20590870
3105.82 20274100 19838650 19418300 19033370 18670790 18367830
3108.71 18048180 17631150 17267860 16884330 16445670 16120860
3111.60 15862910 15550360 15219200 14864040 14452830 14051510
3114.49 13744490 13495320 13195160 12828340 12521750 12351460
3117.39 12094300 11759560 11490130 11167660 10870010 10672960
3120.28 10582390 10408900 10131810 9906372 9730368 9501254
3123.17 9251684 9060062 8901162 8719586 8542578 8411974
3126.06 8203168 8042690 7976868 7830426 7610438 7435792
3128.96 7295778 7189696 7104766 7011208 6928238 6782408
3131.85 6690152 6567964 6377548 6248606 6219596 6186142
3134.74 6073770 5941188 5860618 5849062 5863714 5806946
3137.64 5717808 5534774 5419514 5447678 5528066 5514604
3140.53 5395956 5228934 5082016 5042500 5046544 4969876
3143.42 4907514 4887284 4860562 4819952 4741480 4686904
3146.31 4707280 4714224 4719988 4654716 4648226 4700642
3149.21 4672392 4647436 4692476 4601664 4401290 4383144
3152.10 4541932 4588486 4476296 4374848 4300428 4202648
3154.99 4184068 4201918 4183586 4174142 4235322 4230496
3157.88 4167348 4069180 4032418 4077954 4068182 3973634
3160.78 3918242 3898416 3884046 3971556 3994072 3941586
3163.67 3856906 3867714 3902294 3885220 3831586 3788184
3166.56 3737264 3747704 3749116 3767632 3759456 3712626
3169.46 3710970 3715056 3679970 3599056 3618362 3613762
3172.35 3515026 3458604 3462782 3413118 3408948 3450138
3175.24 3483758 3487900 3434340 3445954 3472910 3411870
3178.13 3347240 3346968 3308820 3172756 3121800 3137350
3181.03 3149254 3139250 3107230 3100812 3132008 3070498
3183.92 3046534 3009392 2965080 2912242 2885210 2872762
3186.81 2804090 2754154 2759380 2774200 2785012 2704070
3189.70 2624280 2601626 2642286 2677426 2580478 2476020
3192.60 2483658 2499212 2508242 2483164 2455640 2400680
3195.49 2441140 2397286 2296668 2322696 2331276 2299400
3198.38 2322010 2280454 2187322 2177792 2190094 2151314
3201.27 2094516 2101202 2138340 2042910 1987592 1987528
3204.17 1989994 1956372 1960706 1945994 1919466 1923994
3207.06 1926106 1892024 1889738 1831286 1786776 1823862
3209.95 1900886 1854934 1746194 1750584 1827284 1783914
3212.85 1652668 1704800 1733704 1650896 1662990 1680156
3215.74 1704020 1639518 1587170 1599584 1581886 1545288
3218.63 1562156 1611080 1652890 1574510 1506408 1536250
3221.52 1572898 1554600 1502006 1429046 1420680 1490102
3224.42 1558660 1568810 1495482 1442870 1419158 1353008
3227.31 1330076 1377852 1407814 1407740 1407998 1461702
3230.20 1459038 1402072 1402056 1456700 1430650 1277780
3233.09 1216182 1274802 1329142 1304884 1317520 1321118
3235.99 1340292 1351318 1300358 1331302 1402226 1373168
3238.88 1287760 1241456 1269646 1276424 1274390 1258846
3241.77 1210152 1188756 1189314 1256798 1272948 1283556
3244.67 1297342 1177104 1134286 1180424 1167958 1144580
3247.56 1153840 1192780 1134732 1066224 1114466 1204684
3250.45 1215464 1207330 1139484 1092038 1190364 1259476
3253.34 1245854 1229850 1216302 1087452 1049158 1133284
3256.24 1148678 1157528 1102960 1091090 1145956 1102708
3259.13 1011678 1038686 1082608 1077864 1071574 1099230
3262.02 1093170 1050454 964614 991492 1064516 1077444
3264.91 1001270 954774 1018628 1019310 973210 935366
3267.81 976822 955680 923220 970104 944584 853332
3270.70 868790 957434 1052376 1072696 1032340 991146
3273.59 944640 934076 970108 974526 967720 1023582
3276.49 1030846 996506 991018 1015692 959406 899686
3279.38 913452 997458 1059648 1054318 1022170 981320
3282.27 1027842 1012650 982454 1022242 982620 920828
3285.16 944274 1014428 1061666 1021336 993608 1133282
3288.06 1196000 1094450 1001104 986838 984366 1035032
3290.95 1101370 1154030 1150034 1065920 964150 929308
3293.84 1026902 1052388 984090 968638 1002842 983056
3296.73 971450 999040 1028062 1043372 1011460 1079084
3299.63 1151818 1108302 1108944 1050766 981246 920732
3302.52 923256 943864 926772 896376 987894 1048916
3305.41 967786 978998 999242 1018728 1024902 1039640
3308.31 1074598 1124274 1143144 1117198 1040638 1036498
3311.20 1035012 1021410 906314 850726 897408 932046
3314.09 988630 940908 992952 992806 937438 975952
3316.98 1032956 1011206 976256 955326 906594 950238
3319.88 915868 819738 872720 880068 865968 866006
3322.77 880948 863736 799646 839690 906514 877742
3325.66 842630 843664 886928 914388 893464 823016
3328.55 754556 696944 718352 696984 644764 702138
3331.45 816212 771046 682038 674890 670854 661808
3334.34 732410 697164 649068 678226 670020 601938
3337.23 566112 580646 561746 686826 679398 665146
3340.13 689390 644564 553172 587654 582096 552506
3343.02 590854 648788 617038 566898 500920 495826
3345.91 547468 583564 624840 684672 671776 631898
3348.80 673534 613342 477388 460820 513002 574278
3351.70 606514 577486 590340 670750 674884 658756
3354.59 587066 549720 606200 642750 587178 612666
3357.48 619118 662286 701620 689580 657954 570824
3360.37 540136 609662 631788 688020 658364 670712
3363.27 728934 774026 802072 765172 712530 676970
3366.16 651076 717762 754496 755984 738886 632596
3369.05 674802 894908 884846 869140 907582 922662
3371.95 940594 957146 973954 997074 1075286 1035710
3374.84 1053386 1112340 1107782 1068462 1070518 1106418
3377.73 1251636 1308580 1269352 1212210 1167096 1201278
3380.62 1238612 1323280 1343806 1349120 1339114 1390180
3383.52 1511506 1461842 1308744 1297144 1339078 1394670
3386.41 1447844 1434380 1414914 1389092 1367580 1345362
3389.30 1371336 1379120 1417970 1432362 1452342 1559018
3392.19 1614608 1542832 1451890 1434296 1381386 1350282
3395.09 1364612 1381820 1460578 1505938 1495370 1572600
3397.98 1578414 1505296 1420756 1394646 1410698 1462342
3400.87 1566500 1581758 1577112 1583908 1593348 1554554
3403.77 1555328 1611580 1593264 1563350 1604250 1616886
3406.66 1703588 1731960 1735778 1725138 1757874 1783442
3409.55 1884806 2037876 2032514 1972628 2025002 2111098
3412.44 2188320 2302536 2387386 2481222 2566976 2642716
3415.34 2752346 2882594 2930780 3038548 3241070 3352500
3418.23 3406136 3597756 3822488 4049648 4248044 4316920
3421.12 4576576 4801870 4967256 5244296 5519226 5778586
3424.01 6015800 6231458 6511752 6804744 7121382 7521436
3426.91 7831474 8133846 8464322 8874148 9275604 9600742
3429.80 9981980 10386030 10803340 11122580 11449890 11804030
3432.69 12355780 12814660 13186520 13598320 13954690 14315670
3435.59 14639610 14981420 15356500 15696970 16035080 16422010
3438.48 16728960 17015360 17348130 17623350 17862140 18107170
3441.37 18422610 18784490 19124110 19384030 19602090 19786700
3444.26 20051990 20320400 20531130 20789110 21163390 21488930
3447.16 21595200 21679210 21742560 21732240 21609860 21413690
3450.05 21471080 21815080 22198300 22680580 23297620 24033910
3452.94 24733610 25306450 25711100 25921660 25922180 25774300
3455.83 25671440 25609510 25522590 25340430 25117900 25093330
3458.73 25025260 24895100 24966010 24954730 24853690 24845960
3461.62 24831230 24885960 24875680 24775770 24638220 24571150
3464.51 24431720 24221660 24045970 23903130 23714860 23443000
3467.40 23123450 22798560 22613580 22339350 21926300 21692300
3470.30 21393040 21002920 20730330 20473770 20034570 19584630
3473.19 19229960 18857850 18568950 18213510 17736280 17254870
3476.08 16924980 16560700 16134940 15718590 15332220 14869560
3478.98 14514520 14232640 13884870 13516600 13156990 12808990
3481.87 12445840 12094340 11777140 11461510 11095880 10698540
3484.76 10351880 10019260 9755622 9450000 9095630 8817472
3487.65 8540850 8310698 8183222 8032104 7970988 7873014
3490.55 7740600 7580096 7355302 7189714 7004478 6869058
3493.44 6829718 6773378 6749358 6623522 6412034 6266126
3496.33 6098044 5880674 5719266 5520368 5382192 5313298
3499.22 5274606 5178430 5032390 4922454 4874132 4729598
3502.12 4628706 4654226 4516942 4236752 4130168 3987284
3505.01 3810200 3635962 3635780 3547010 3353262 3204202
3507.90 3214714 3145926 3049856 2869408 2674438 2645012
3510.80 2630896 2593366 2456706 2330658 2317326 2207546
3513.69 2043946 2009486 1981798 1890048 1757378 1672770
3516.58 1648804 1601510 1566824 1538726 1540646 1514506
3519.47 1444388 1305692 1247496 1294090 1232106 1156618
3522.37 1220572 1222706 1202132 1158792 1039610 1040358
3525.26 1093896 999530 989474 1010300 951194 915286
3528.15 864430 873844 797264 719040 762144 746876
3531.04 642182 546654 527368 560758 490984 429170
3533.94 430236 408324 449538 531816 536800 492330
3536.83 433884 368544 360988 369612 288864 275618
3539.72 301414 166104 99972 131946 238834 346178
3542.62 353232 339132 308464 277202 405542 302188
3545.51 113540 266784 548654 380990 203380 180192
3548.40 103394 84114 121724 169540 210088 209070
3551.29 299868 491928 415264 270122 246166 154770
3554.19 78060 67266 162606 143220 159304 234124
3557.08 226978 194460 212560 194306 124704 230182
3559.97 250846 141640 128886 185774 193582 114814
3562.86 225404 255708 226358 229750 328454 590878
3565.76 813980 807756 423248 684812 1004466 502952
3568.65 99138 29656 52542 113598 126812 29060
3571.54-69228-65428-95116-152822-117028-53192
3574.44-72392-149638-113688-35672-4952-62008
3577.33-177880-219866-156370-25000 85600 52050
3580.22-81590-170848-174626-105136-125146-187934
3583.11-126602-155012-116292-66660 13946 359306
3586.01 933608 603058 140358 206332 1054394 1134012
3588.90 129930-119780-129216-151260-172096-80706
3591.79 14492 209370 300990 77144-88062-14138
3594.68 309452 361430 180584-7126-74818-7496
3597.58 45086 83034 78320 101164 61624 126646
3600.47 268398 187984 13264-2060 44058 2130
3603.36-58834-19768-45502 1962 89116 138638
3606.26 454464 523650 143454 91552 656814 1884020
3609.15 1304574 236588 13412-85466 25508 558000
3612.04 1299024 782256 192000 265850 576700 435588
3614.93 228166 115560 44130 49274 563006 840744
3617.83 397834 344794 1309424 1760700 691648 317086
3620.72 344178 193216 73508 105792 159556 157152
3623.61 45638 45810 50096 105416 234794 292206
3626.50 235502 415782 1628214 2569148 1803412 2930932
3629.40 2557018 762794 327228 153630 106070 61076
3632.29 120356 337576 679124 442212 175246 113452
3635.18 97160 67728 145178 144112 193680 304200
3638.08 282626 182742 134498 140516 141336 92988
3640.97 119536 195052 269092 208472 195382 153220
3643.86 139642 200344 307160 363308 667778 1127112
3646.75 1719714 1330502 647614 1474742 3545552 2538360
3649.65 1051388 1491870 1679976 1320442 469322 289324
3652.54 219514 180724 164626 243520 361200 603418
3655.43 1720364 2473024 1072860 320498 165242 182534
3658.32 196864 242160 205272 197236 196296 277152
3661.22 253078 236586 176766 217650 271014 252906
3664.11 185676 233844 256218 295272 339864 357170
3667.00 365286 507646 1330712 1670466 849400 957398
3669.90 3104552 4320348 1703914 555976 345660 395888
3672.79 343468 636300 1159886 2523184 2807476 3638676
3675.68 3982832 1573408 581452 542346 485560 505138
3678.57 851684 1043762 655520 556388 474758 383814
3681.47 313410 339818 335274 430762 404286 439144
3684.36 466806 455602 274580 358398 445108 716958
3687.25 1559320 4516102 4458764 1437620 572396 670086
3690.14 1111238 1868278 1677782 692812 528572 517408
3693.04 528568 449618 520966 528724 543706 503042
3695.93 549126 504398 499918 459136 480608 514008
3698.82 538548 464562 464418 593318 1084832 1711830
3701.72 1299130 685326 563740 487100 479936 465852
3704.61 536232 555908 568592 537300 553550 472028
3707.50 545882 705914 1428994 1992872 1231154 696372
3710.39 892908 1273340 2927642 3763340 1844910 803342
3713.29 579258 634022 788526 658894 541344 636066
3716.18 625802 649246 609004 666698 896764 1051290
3719.07 763418 599838 600778 645176 747392 1267262
3721.96 1335096 902554 699208 715120 864364 1075578
3724.86 936454 834752 1421134 1585740 893064 736108
3727.75 701314 757806 682022 708098 777970 892622
3730.64 961018 1936056 3373940 2376888 1064214 1004736
3733.54 1257556 2007930 2352066 2015422 1579924 2923062
3736.43 3249854 1425220 1026578 1342396 1192834 925210
3739.32 822736 869312 1101362 1292438 1045062 826040
3742.21 918092 1260154 2511322 5638022 8067940 5120908
3745.11 1870666 1058978 945508 1067376 1128050 1115120
3748.00 1470434 3937816 5955418 3400126 1318130 1265444
3750.89 1819194 4593610 6219474 3058474 1278322 1078312
3753.78 970888 877592 1057524 1126244 1419256 1621598
3756.68 1189808 931606 928254 1038562 1368680 1943846
3759.57 1998384 1212510 924108 924866 997026 974890
3762.46 975694 952922 949958 968752 1149212 1627178
3765.35 1973152 1360014 978288 912888 1045468 1052538
3768.25 1060652 1400170 2518410 2464032 1401338 1149392
3771.14 1152972 1083272 1036722 1037260 1008226 1065378
3774.03 1065604 978772 970182 982720 1040490 1104616
3776.93 1113294 1252808 1346774 1530152 2134234 1960822
3779.82 1314128 1211504 1253214 1318538 1293642 1253864
3782.71 1215820 1287376 1436970 1624054 1604932 1394646
3785.60 1254256 1315382 1337686 1305568 1297192 1309322
3788.50 1305598 1366582 1377740 1411086 1406384 1399870
3791.39 1383284 1365480 1328096 1376328 1336150 1394248
3794.28 1475840 1553186 1735524 2444704 2388872 1760164
3797.17 1705480 1686356 1571964 1651436 1718926 1926782
3800.07 2384862 4831566 6441736 3636424 2179750 2230290
3802.96 2017878 1844666 1790286 1760128 1841248 1951994
3805.85 2637474 4667042 4367346 2273234 1735284 1580422
3808.75 1718698 1719970 1652846 1521946 1558168 1540090
3811.64 1696008 1690560 1727282 1639626 1680022 1656930
3814.53 1916430 3416406 6319328 4927960 2229780 1715930
3817.42 1626130 1779904 1768510 1806456 2041446 2884628
3820.32 3604780 3553896 3914628 2831744 1846256 1677054
3823.21 1635570 1722108 1633752 1562344 1589286 1688822
3826.10 2161708 2090482 1672978 1620334 1529748 1512158
3828.99 1463508 1467512 1518460 1769272 2552106 2738012
3831.89 1810394 1506696 1412756 1495440 1805208 2807442
3834.78 2524788 1633134 1415214 1569486 2614362 5873286
3837.67 5438030 2226138 1461422 1562810 1771518 1828568
3840.57 2328570 1711242 1234738 1198604 1371780 1944208
3843.46 2024850 1339842 1163554 1009634 998962 972128
3846.35 1020650 969398 1037816 1019546 1110990 1161388
3849.24 1183922 1057408 1042012 1384352 3562922 5113804
3852.14 2802892 1900082 4437512 8119338 6717952 2604724
3855.03 1157700 919114 1016144 1303226 1364606 1029412
3857.92 900314 833042 793862 813124 968276 991630
3860.81 1325254 1821320 1364100 855356 924566 1024010
3863.71 1282016 2113770 2874422 1739054 993550 791060
3866.60 780442 690254 839906 1095980 1895650 2440892
3869.49 3713052 2895414 1024988 824272 789684 810950
3872.39 778008 939564 1375866 1805858 1282008 767886
3875.28 737988 674610 694744 673280 652242 676108
3878.17 711182 775082 1175718 1953588 1700700 1154454
3881.06 923788 699086 752474 939300 983564 787840
3883.96 853156 1200444 2794152 3321586 1670262 786278
3886.85 763736 722484 666986 706706 775068 810958
3889.74 799040 1396484 2697686 2267122 1160620 937832
3892.63 884934 905014 986298 931726 795972 804546
3895.53 817344 851272 879850 967054 1032278 1145710
3898.42 1851256 2589894 1704920 1001104 1040814 1742382
3901.31 2681484 2045562 1246200 1218442 2018998 2994534
3904.21 2077342 1285948 1393148 1494112 1267010 1104802
3907.10 1061332 1132626 1095650 1073316 1101806 1126468
3909.99 1074230 1149652 1216182 1164124 1203176 1217930
3912.88 1245086 1271272 1323784 1333102 1284350 1288372
3915.78 1491480 1814058 2242342 1810898 1361700 1362030
3918.67 1425414 1721804 1966778 1592658 1326606 1323424
3921.56 1373178 1414760 1440928 1530130 1556354 1599812
3924.45 1845112 1823250 1470698 1270120 1270180 1371222
3927.35 1439578 1467802 1556560 1620130 1516508 1496500
3930.24 1498884 1449820 1623286 1942538 1897030 1599604
3933.13 1492654 1489978 1559140 1654882 1591630 1503182
3936.03 1481162 1359744 1351904 1493752 1530308 1493046
3938.92 1492212 1485938 1503892 1515810 1450898 1470266
3941.81 1682294 1863590 1638818 1489422 1542176 1504580
3944.70 1519510 1518986 1516138 1493128 1582564 1657516
3947.60 1586980 1471164 1448596 1649354 1755004 1569904
3950.49 1492112 1467970 1450386 1475424 1434572 1402490
3953.38 1431356 1497252 1561666 1578598 1480416 1436816
3956.27 1481696 1549420 1559352 1584026 1579748 1585692
3959.17 1623518 1608368 1639850 1650990 1705878 1768426
3962.06 1714154 1643892 1594224 1656214 1743184 1763278
3964.95 1774096 1802606 1790736 1776270 1810646 1882576
3967.85 1890132 1960400 2010152 2018178 2006768 2000806
3970.74 2002802 2140224 2283800 2252372 2178138 2218764
3973.63 2264198 2382354 2436228
##END=
