##TITLE=Bis(4-nitrophenyl)phosphoric acid
##JCAMP-DX=4.24
##DATA TYPE=MASS SPECTRUM
##ORIGIN=Chemical Sci. & Tec. Lab., NIST, Gaithersburg, MD 20899
##OWNER=NIST Mass Spectrometry Data Center
Collection (C) 2014 copyright by the U.S. Secretary of Commerce
on behalf of the United States of America. All rights reserved.
##CAS REGISTRY NO=645-15-8
##$NIST MASS SPEC NO=254287
##MOLFORM=C12 H9 N2 O8 P
##MW=340
##$NIST SOURCE=MSDC
##XUNITS=M/Z
##YUNITS=RELATIVE INTENSITY
##XFACTOR=1
##YFACTOR=1
##FIRSTX=41
##LASTX=341
##FIRSTY=674
##MAXX=341
##MINX=41
##MAXY=9999
##MINY=91
##NPOINTS=105
##PEAK TABLE=(XY..XY)
41,674 42,473 43,1226 44,3497
45,95 47,956 48,384 49,391
50,1900 51,291 52,588 53,1191
54,115 55,470 56,106 57,201
62,672 63,2427 64,1407 65,2090
66,230 68,398 69,557 70,612
73,99 74,705 75,3099 76,1813
77,4035 79,914 80,429 81,2346
84,322 85,658 86,230 88,632
89,91 91,132 92,735 93,691
96,115 97,252 99,365 103,99
104,344 105,6220 106,627 107,587
109,9999 110,448 111,119 112,418
113,214 114,214 116,104 121,1727
122,629 123,660 126,111 127,543
128,249 134,95 138,265 139,2555
140,446 144,208 149,444 151,110
153,106 155,539 156,958 167,95
168,682 171,93 172,375 173,225
174,197 176,97 184,429 185,93
186,376 189,214 190,110 196,91
197,101 202,124 213,444 214,311
230,780 232,95 236,188 243,1157
248,376 260,1014 263,95 276,208
293,596 294,91 310,758 323,574
324,386 336,186 339,3326 340,9180
341,1239
##END=
