##TITLE=Deoxycytidine
##JCAMP-DX=4.24
##DATA TYPE=MASS SPECTRUM
##ORIGIN=Japan AIST/NIMC Database- Spectrum MS-IW-1353
##OWNER=NIST Mass Spectrometry Data Center
Collection (C) 2014 copyright by the U.S. Secretary of Commerce
on behalf of the United States of America. All rights reserved.
##CAS REGISTRY NO=951-77-9
##$NIST MASS SPEC NO=230841
##MOLFORM=C9 H13 N3 O4
##MW=227
##$NIST SOURCE=MSDC
##XUNITS=M/Z
##YUNITS=RELATIVE INTENSITY
##XFACTOR=1
##YFACTOR=1
##FIRSTX=12
##LASTX=228
##FIRSTY=10
##MAXX=228
##MINX=12
##MAXY=9999
##MINY=10
##NPOINTS=173
##PEAK TABLE=(XY..XY)
12,10 13,30 14,90 15,249
16,40 17,239 18,819 19,109
25,30 26,189 27,609 28,1169
29,759 30,90 31,459 32,40
33,10 34,20 39,839 40,989
41,1909 42,1609 43,1219 44,919
45,529 46,10 47,159 48,10
49,10 50,90 51,189 52,309
53,569 54,189 55,549 56,299
57,589 58,60 59,20 60,80
61,60 63,10 64,10 65,70
66,309 67,1129 68,1329 69,2159
70,609 71,389 72,80 73,689
74,40 75,20 77,20 78,30
79,60 80,50 81,1309 82,369
83,1439 84,179 85,149 86,50
87,40 88,10 89,10 91,40
92,20 93,60 94,139 95,689
96,149 97,909 98,1139 99,479
100,90 101,20 103,30 104,10
105,20 106,10 107,50 108,30
109,50 110,209 111,9999 112,2229
113,169 114,30 115,109 116,109
117,759 118,60 119,40 120,30
121,90 122,60 123,60 124,30
125,299 126,40 127,20 128,20
129,30 130,10 131,20 132,10
133,40 134,20 135,109 136,189
137,70 138,379 139,50 140,80
141,20 143,50 144,20 145,30
146,10 147,40 148,199 149,139
150,50 151,60 152,20 153,439
154,60 155,20 157,10 159,10
160,40 161,60 162,289 163,50
164,10 165,10 166,20 167,20
168,10 169,10 170,10 171,10
173,50 174,20 175,10 176,10
177,10 178,50 179,30 180,10
181,10 182,20 183,20 184,10
188,10 189,10 190,20 191,149
192,40 193,10 195,10 196,20
197,60 198,10 199,10 209,10
210,20 211,10 226,10 227,30
228,20
##END=
