##TITLE=Biotin
##JCAMP-DX=4.24
##DATA TYPE=MASS SPECTRUM
##ORIGIN=Chemical Concepts
##OWNER=NIST Mass Spectrometry Data Center
Collection (C) 2014 copyright by the U.S. Secretary of Commerce
on behalf of the United States of America. All rights reserved.
##CAS REGISTRY NO=58-85-5
##$NIST MASS SPEC NO=196848
##MOLFORM=C10 H16 N2 O3 S
##MW=244
##$NIST SOURCE=MSDC
##XUNITS=M/Z
##YUNITS=RELATIVE INTENSITY
##XFACTOR=1
##YFACTOR=1
##FIRSTX=26
##LASTX=247
##FIRSTY=46
##MAXX=247
##MINX=26
##MAXY=9999
##MINY=20
##NPOINTS=171
##PEAK TABLE=(XY..XY)
26,46 27,717 28,822 29,642
30,433 31,97 34,21 36,71
38,30 39,640 40,144 41,1881
42,885 43,1302 44,335 45,1228
46,407 47,355 48,78 49,28
50,39 51,86 52,80 53,407
54,631 55,1352 56,1215 57,877
58,157 59,413 60,766 61,3220
62,102 63,41 65,246 66,134
67,1127 68,690 69,988 70,1041
71,918 72,133 73,1401 74,717
75,326 76,188 77,133 78,56
79,287 80,561 81,587 82,446
83,436 84,1796 85,6119 86,532
87,3230 88,379 89,153 90,141
91,129 92,44 93,224 94,185
95,323 96,344 97,9999 98,2306
99,857 100,2932 101,593 102,207
103,60 104,70 105,86 106,51
107,73 108,109 109,158 110,202
111,1005 112,5411 113,1003 114,325
115,241 116,49 117,30 118,21
119,39 120,38 121,65 122,61
123,215 124,189 125,151 126,93
127,153 128,71 129,158 130,93
131,45 132,41 133,35 134,27
135,54 136,106 137,117 138,171
139,142 140,147 141,99 142,131
143,507 144,721 145,253 146,65
147,30 148,23 151,119 152,112
153,54 154,76 155,58 156,54
157,126 158,131 159,40 160,798
161,136 162,57 163,38 164,27
165,52 166,590 167,127 168,216
169,68 170,23 171,78 172,27
173,20 175,22 177,26 179,152
180,51 181,31 182,46 183,52
184,7348 185,2699 186,604 187,148
188,21 193,35 194,21 195,21
197,332 198,214 199,80 200,149
201,127 202,33 211,113 226,100
227,217 228,36 229,47 244,1688
245,314 246,117 247,22
##END=
