##TITLE=Isoquinoline
##JCAMP-DX=4.24
##DATA TYPE=UV/VIS SPECTRUM
##ORIGIN=INSTITUTE OF ENERGY PROBLEMS OF CHEMICAL PHYSICS, RAS
##OWNER=INEP CP RAS, NIST OSRD
Collection (C) 2007 copyright by the U.S. Secretary of Commerce
on behalf of the United States of America. All rights reserved.
##CAS REGISTRY NO=119-65-3
##MOLFORM=C9H7N
##MP=26.47
##BP=243.2
##SOURCE REFERENCE=RAS UV No. 277
##$NIST SQUIB=1962COP/GIL1441-1453
##$NIST SOURCE=TSGMTE
##SPECTROMETER/DATA SYSTEM=n.i.g.
##XUNITS=Wavelength (nm)
##YUNITS=Logarithm epsilon
##XFACTOR=1.000000
##YFACTOR=1.000000
##FIRSTX=262.2329
##LASTX=323.7418
##FIRSTY=3.45664
##MAXX=323.742
##MINX=262.233
##MAXY=3.45782
##MINY=2.17487
##NPOINTS=257
##$REF AUTHOR=Coppens, G.; Gillet, C.; Nasielski, J.; Donckt, E.V.
##$REF TITLE=Proprietes physico-chimiques de composes a caractere aromatique. IV. Influence de la polarite des solvants sur les transitions N-V et n-«pi»* de quelques derives monoaza-aromatiques
##$REF JOURNAL=Spectrochim. Acta
##$REF VOLUME=18
##$REF PAGE=1441-1453
##$REF DATE=1962
##XYPOINTS=(XY..XY)
262.2329,3.456642
262.7872,3.457231
263.3415,3.457819
263.3415,3.457819
264.3969,3.457803
265.1963,3.457269
265.8280,3.455762
266.3801,3.452814
266.9410,3.447934
267.5989,3.440584
267.5989,3.440584
267.9395,3.433992
268.2827,3.427480
268.6351,3.421037
269.0032,3.414649
269.3936,3.408302
269.8128,3.401980
270.2675,3.395667
270.7641,3.389346
271.3092,3.382998
271.9095,3.376604
271.9095,3.376604
272.6021,3.371855
273.3113,3.367056
274.0348,3.362188
274.7704,3.357234
275.5157,3.352174
276.2684,3.346987
276.2684,3.346987
276.7667,3.340354
277.1841,3.332858
277.5357,3.324649
277.8367,3.315888
278.1020,3.306746
278.3468,3.297409
278.5862,3.288080
278.5862,3.288080
278.7313,3.279353
278.8729,3.270449
279.0124,3.261361
279.1513,3.252085
279.2911,3.242615
279.4332,3.232944
279.5791,3.223067
279.7302,3.212975
279.8880,3.202661
280.0540,3.192119
280.2295,3.181338
280.4161,3.170311
280.6152,3.159028
280.8283,3.147478
281.0567,3.135652
281.3021,3.123536
281.5657,3.111120
281.8492,3.098390
282.1539,3.085331
282.1539,3.085331
282.4409,3.075280
282.8070,3.062521
283.2406,3.047900
283.7301,3.032357
284.2641,3.016974
284.8311,3.002988
285.4195,2.991790
286.0177,2.984864
286.0177,2.984864
286.5008,2.984973
286.9839,2.985081
287.4670,2.985190
287.4670,2.985190
288.4708,2.993629
289.3012,2.996135
290.0751,2.993623
290.9096,2.986828
291.9219,2.976388
291.9219,2.976388
292.3743,2.976894
292.8291,2.977295
293.2885,2.977644
293.2885,2.977644
294.1624,2.991755
294.8466,2.998810
295.6254,3.001323
296.7830,3.001550
296.7830,3.001550
297.3140,2.995969
298.0331,2.993747
298.7193,2.993428
298.7193,2.993428
299.1716,3.001040
299.5705,3.011149
299.9197,3.023230
300.2232,3.036776
300.4848,3.051316
300.7084,3.066421
300.8979,3.081711
301.0570,3.096854
301.1898,3.111559
301.2999,3.125577
301.3914,3.138687
301.4680,3.150695
301.5336,3.161425
301.5921,3.170711
301.6473,3.178395
301.6473,3.178395
301.7011,3.179286
301.7595,3.180143
301.8203,3.180933
301.8203,3.180933
301.9751,3.180616
302.1322,3.180234
302.2939,3.179820
302.2939,3.179820
302.6262,3.164374
302.9630,3.148360
303.3021,3.131732
303.3021,3.131732
303.5238,3.124742
303.7844,3.113760
304.0062,3.106355
304.0062,3.106355
304.2771,3.092303
304.5902,3.077268
304.9599,3.061788
305.4009,3.046484
305.9274,3.032066
305.9274,3.032066
306.1359,3.032461
306.3489,3.032766
306.5643,3.033024
306.5643,3.033024
307.1588,3.049486
307.7001,3.065644
308.2434,3.081048
308.8439,3.095313
308.8439,3.095313
309.0962,3.096969
309.2851,3.097419
309.5728,3.097052
309.5728,3.097052
310.1103,3.083414
310.5955,3.069457
311.0415,3.054842
311.4611,3.039186
311.8674,3.022045
312.2735,3.002900
312.2735,3.002900
312.3877,3.000475
312.5019,2.998036
312.6161,2.995583
312.6161,2.995583
312.9142,2.995657
313.1363,2.996967
313.3844,3.001360
313.3844,3.001360
313.4710,3.017748
313.5504,3.033546
313.6231,3.048795
313.6895,3.063532
313.7499,3.077788
313.8048,3.091595
313.8546,3.104979
313.8995,3.117965
313.9402,3.130575
313.9769,3.142830
314.0101,3.154748
314.0401,3.166349
314.0673,3.177646
314.0922,3.188656
314.1151,3.199392
314.1364,3.209867
314.1566,3.220093
314.1760,3.230080
314.1950,3.239840
314.2141,3.249382
314.2336,3.258715
314.2539,3.267847
314.2754,3.276787
314.2985,3.285542
314.3236,3.294118
314.3512,3.302524
314.3815,3.310764
314.4151,3.318845
314.4522,3.326772
314.4933,3.334550
314.5389,3.342186
314.5892,3.349683
314.6447,3.357045
314.7058,3.364278
314.7058,3.364278
314.7860,3.366595
314.8684,3.368879
314.9555,3.371109
314.9555,3.371109
315.1458,3.371193
315.2862,3.370914
315.4712,3.369536
315.4712,3.369536
315.6047,3.361849
315.7139,3.354002
315.8021,3.345979
315.8729,3.337766
315.9298,3.329344
315.9762,3.320694
316.0158,3.311796
316.0519,3.302629
316.0519,3.302629
316.1205,3.294208
316.1876,3.285612
316.2532,3.276835
316.3174,3.267869
316.3800,3.258707
316.4411,3.249340
316.5006,3.239759
316.5587,3.229955
316.6153,3.219917
316.6703,3.209636
316.7238,3.199098
316.7758,3.188292
316.8263,3.177204
316.8752,3.165820
316.9227,3.154124
316.9685,3.142098
317.0129,3.129725
317.0557,3.116985
317.0970,3.103854
317.1367,3.090310
317.1749,3.076327
317.2116,3.061874
317.2467,3.046921
317.2803,3.031432
317.3123,3.015368
317.3428,2.998685
317.3717,2.981334
317.3990,2.963260
317.4248,2.944401
317.4490,2.924688
317.4717,2.904037
317.4928,2.882358
317.4928,2.882358
317.6624,2.852745
317.8792,2.820600
318.1290,2.785208
318.3974,2.745630
318.3974,2.745630
318.9197,2.693819
319.2888,2.658112
319.6698,2.616695
319.6698,2.616695
320.1483,2.579574
320.8090,2.512600
321.1439,2.462183
321.1439,2.462183
321.7348,2.404313
322.3276,2.337916
322.9780,2.261871
323.7418,2.174867
##END=
