##TITLE=DL-Cystine
##JCAMP-DX=4.24
##DATA TYPE=MASS SPECTRUM
##ORIGIN=Japan AIST/NIMC Database- Spectrum MS-NW- 384
##OWNER=NIST Mass Spectrometry Data Center
Collection (C) 2014 copyright by the U.S. Secretary of Commerce
on behalf of the United States of America. All rights reserved.
##CAS REGISTRY NO=923-32-0
##$NIST MASS SPEC NO=228887
##MOLFORM=C6 H12 N2 O4 S2
##MW=240
##$NIST SOURCE=MSDC
##XUNITS=M/Z
##YUNITS=RELATIVE INTENSITY
##XFACTOR=1
##YFACTOR=1
##FIRSTX=12
##LASTX=240
##FIRSTY=90
##MAXX=240
##MINX=12
##MAXY=9999
##MINY=30
##NPOINTS=184
##PEAK TABLE=(XY..XY)
12,90 14,40 15,359 16,979
17,1299 18,1349 19,30 22,99
25,40 26,239 27,739 28,1879
29,269 30,689 32,1659 33,1519
34,4189 35,99 36,249 37,30
38,119 39,309 40,379 41,889
42,2689 43,1119 44,9999 45,789
46,279 47,339 48,99 50,40
51,99 52,90 53,149 54,599
55,399 56,359 57,249 58,469
59,1479 60,449 61,209 62,80
63,40 64,1799 65,119 66,289
67,139 68,579 69,859 70,229
71,129 72,109 73,189 74,1859
75,1229 76,1839 77,139 78,109
79,50 80,80 81,80 82,80
83,109 84,99 85,239 86,339
87,249 88,179 89,60 90,40
91,30 92,70 93,109 94,80
95,129 96,159 97,99 98,109
99,229 100,349 101,279 102,279
103,139 104,80 105,50 106,50
107,60 108,40 109,60 110,80
111,139 112,229 113,139 114,90
115,50 116,40 117,30 118,60
119,60 120,50 121,119 122,30
123,50 124,80 125,90 126,189
127,189 128,149 129,80 130,99
131,90 132,149 133,50 134,40
135,40 136,50 137,60 138,109
139,80 140,109 141,60 142,60
143,50 144,40 145,99 146,30
147,99 148,30 149,60 150,40
151,60 152,50 153,60 154,50
155,50 156,40 157,60 158,30
159,50 160,189 161,40 162,50
163,30 164,30 165,50 166,40
167,60 168,50 169,80 170,40
171,30 172,40 175,30 176,30
177,70 178,70 179,50 180,40
181,50 182,40 183,40 184,40
185,30 190,30 192,279 194,70
195,50 196,80 197,30 198,30
200,30 201,30 202,70 203,30
204,30 206,30 209,30 211,40
212,30 213,30 224,70 240,40
##END=
