##TITLE=Aminoparathion
##JCAMP-DX=4.24
##DATA TYPE=MASS SPECTRUM
##ORIGIN=J. SHAW, BORRISTON RESEARCH, ROCKVILLE, MD, USA
##OWNER=NIST Mass Spectrometry Data Center
Collection (C) 2014 copyright by the U.S. Secretary of Commerce
on behalf of the United States of America. All rights reserved.
##CAS REGISTRY NO=3735-01-1
##$NIST MASS SPEC NO=60443
##MOLFORM=C10 H16 N O3 P S
##MW=261
##$NIST SOURCE=MSDC
##XUNITS=M/Z
##YUNITS=RELATIVE INTENSITY
##XFACTOR=1
##YFACTOR=1
##FIRSTX=12
##LASTX=264
##FIRSTY=30
##MAXX=264
##MINX=12
##MAXY=9999
##MINY=10
##NPOINTS=159
##PEAK TABLE=(XY..XY)
12,30 13,20 14,150 15,660
16,90 17,290 18,1011 19,60
26,870 27,5015 28,3203 29,7567
30,430 31,200 32,150 33,60
34,110 35,50 36,10 37,40
38,210 39,1361 40,160 41,550
42,280 43,410 44,220 45,610
46,90 47,650 48,80 49,30
50,170 51,460 52,1481 53,3253
54,920 55,180 56,40 57,60
58,50 59,80 60,120 61,140
62,180 63,660 64,390 65,3583
66,340 67,160 68,90 69,60
70,40 71,30 72,10 73,10
74,30 75,50 76,90 77,200
78,250 79,440 80,5765 81,1501
82,160 83,50 84,40 85,30
88,10 89,20 90,70 91,470
92,560 93,1771 94,270 95,70
97,5795 98,110 99,280 103,30
104,60 105,70 106,190 108,8498
109,9709 110,650 111,130 112,80
113,20 114,30 115,50 117,40
118,80 119,160 120,420 121,490
122,880 124,3303 125,9999 126,800
127,480 128,30 132,10 133,10
134,50 136,1171 137,700 138,480
139,110 140,330 141,40 142,20
143,10 148,20 149,20 150,170
152,700 153,1101 154,150 155,190
156,60 164,40 165,60 166,30
168,80 169,10 170,40 171,170
172,20 180,10 182,10 184,120
185,10 187,460 188,70 189,30
198,10 199,30 200,70 201,10
205,1471 206,90 207,60 214,10
215,50 216,40 218,180 219,10
228,10 229,10 233,900 234,80
235,40 246,100 247,30 261,3373
262,420 263,170 264,10
##END=
